LAMMPS data file for bridgmanite MgSiO3, units = metal

10240 atoms
3 atom types

0.0000000000000000 37.3659845380646018 xlo xhi
0.0000000000000000 51.2709627421852900 ylo yhi
0.0000000000000000 35.0931278992702573 zlo zhi

Masses

1 24.305000  # Mg
2 28.085500  # Si
3 15.999000  # O

Atoms # charge

1 1 2.0 2.6820376772291232 1.6022175856932903 0.1019443853897463
2 1 2.0 1.9887103900289516 4.8066527570798705 4.2846966020190349
3 1 2.0 4.3240844236579887 4.8066527570798705 2.2952648790941383
4 1 2.0 0.3466636436000856 1.6022175856932903 2.0913761083146447
5 2 4.0 0.0000000000000000 3.2044351713865806 0.0000000000000000
6 2 4.0 2.3353740336290376 3.2044351713865806 2.1933204937043911
7 2 4.0 0.0000000000000000 0.0000000000000000 0.0000000000000000
8 2 4.0 2.3353740336290376 0.0000000000000000 2.1933204937043911
9 3 -2.0 2.1769877960373920 1.6022175856932903 2.6971674024993644
10 3 -2.0 2.4937602712206828 4.8066527570798705 1.6894735849094176
11 3 -2.0 0.1583862375916453 4.8066527570798705 0.5038469087949736
12 3 -2.0 4.5123618296664292 1.6022175856932903 3.8827940786138089
13 3 -2.0 0.9049147852455018 3.5710882025256927 3.0031660760543750
14 3 -2.0 3.7658332820125735 2.8377821402474677 1.3834749113544080
15 3 -2.0 1.4304592483835359 2.8377821402474677 0.8098455823499836
16 3 -2.0 3.2402888188745393 3.5710882025256927 3.5767954050587982
17 3 -2.0 3.7658332820125735 0.3666530311391118 1.3834749113544080
18 3 -2.0 0.9049147852455018 6.0422173116340492 3.0031660760543750
19 3 -2.0 3.2402888188745393 6.0422173116340492 3.5767954050587982
20 3 -2.0 1.4304592483835359 0.3666530311391118 0.8098455823499836
21 1 2.0 2.6820376772291232 1.6022175856932903 4.4885853727985285
22 1 2.0 1.9887103900289516 4.8066527570798705 8.6713375894278162
23 1 2.0 4.3240844236579887 4.8066527570798705 6.6819058665029205
24 1 2.0 0.3466636436000856 1.6022175856932903 6.4780170957234269
25 2 4.0 0.0000000000000000 3.2044351713865806 4.3866409874087822
26 2 4.0 2.3353740336290376 3.2044351713865806 6.5799614811131732
27 2 4.0 0.0000000000000000 0.0000000000000000 4.3866409874087822
28 2 4.0 2.3353740336290376 0.0000000000000000 6.5799614811131732
29 3 -2.0 2.1769877960373920 1.6022175856932903 7.0838083899081470
30 3 -2.0 2.4937602712206828 4.8066527570798705 6.0761145723181995
31 3 -2.0 0.1583862375916453 4.8066527570798705 4.8904878962037559
32 3 -2.0 4.5123618296664292 1.6022175856932903 8.2694350660225915
33 3 -2.0 0.9049147852455018 3.5710882025256927 7.3898070634631576
34 3 -2.0 3.7658332820125735 2.8377821402474677 5.7701158987631906
35 3 -2.0 1.4304592483835359 2.8377821402474677 5.1964865697587657
36 3 -2.0 3.2402888188745393 3.5710882025256927 7.9634363924675799
37 3 -2.0 3.7658332820125735 0.3666530311391118 5.7701158987631906
38 3 -2.0 0.9049147852455018 6.0422173116340492 7.3898070634631576
39 3 -2.0 3.2402888188745393 6.0422173116340492 7.9634363924675799
40 3 -2.0 1.4304592483835359 0.3666530311391118 5.1964865697587657
41 1 2.0 2.6820376772291232 1.6022175856932903 8.8752263602073107
42 1 2.0 1.9887103900289516 4.8066527570798705 13.0579785768365984
43 1 2.0 4.3240844236579887 4.8066527570798705 11.0685468539117036
44 1 2.0 0.3466636436000856 1.6022175856932903 10.8646580831322090
45 2 4.0 0.0000000000000000 3.2044351713865806 8.7732819748175643
46 2 4.0 2.3353740336290376 3.2044351713865806 10.9666024685219554
47 2 4.0 0.0000000000000000 0.0000000000000000 8.7732819748175643
48 2 4.0 2.3353740336290376 0.0000000000000000 10.9666024685219554
49 3 -2.0 2.1769877960373920 1.6022175856932903 11.4704493773169283
50 3 -2.0 2.4937602712206828 4.8066527570798705 10.4627555597269826
51 3 -2.0 0.1583862375916453 4.8066527570798705 9.2771288836125372
52 3 -2.0 4.5123618296664292 1.6022175856932903 12.6560760534313737
53 3 -2.0 0.9049147852455018 3.5710882025256927 11.7764480508719398
54 3 -2.0 3.7658332820125735 2.8377821402474677 10.1567568861719728
55 3 -2.0 1.4304592483835359 2.8377821402474677 9.5831275571675469
56 3 -2.0 3.2402888188745393 3.5710882025256927 12.3500773798763621
57 3 -2.0 3.7658332820125735 0.3666530311391118 10.1567568861719728
58 3 -2.0 0.9049147852455018 6.0422173116340492 11.7764480508719398
59 3 -2.0 3.2402888188745393 6.0422173116340492 12.3500773798763621
60 3 -2.0 1.4304592483835359 0.3666530311391118 9.5831275571675469
61 1 2.0 2.6820376772291232 1.6022175856932903 13.2618673476160929
62 1 2.0 1.9887103900289516 4.8066527570798705 17.4446195642453823
63 1 2.0 4.3240844236579887 4.8066527570798705 15.4551878413204857
64 1 2.0 0.3466636436000856 1.6022175856932903 15.2512990705409912
65 2 4.0 0.0000000000000000 3.2044351713865806 13.1599229622263465
66 2 4.0 2.3353740336290376 3.2044351713865806 15.3532434559307376
67 2 4.0 0.0000000000000000 0.0000000000000000 13.1599229622263465
68 2 4.0 2.3353740336290376 0.0000000000000000 15.3532434559307376
69 3 -2.0 2.1769877960373920 1.6022175856932903 15.8570903647257104
70 3 -2.0 2.4937602712206828 4.8066527570798705 14.8493965471357647
71 3 -2.0 0.1583862375916453 4.8066527570798705 13.6637698710213193
72 3 -2.0 4.5123618296664292 1.6022175856932903 17.0427170408401558
73 3 -2.0 0.9049147852455018 3.5710882025256927 16.1630890382807237
74 3 -2.0 3.7658332820125735 2.8377821402474677 14.5433978735807550
75 3 -2.0 1.4304592483835359 2.8377821402474677 13.9697685445763291
76 3 -2.0 3.2402888188745393 3.5710882025256927 16.7367183672851425
77 3 -2.0 3.7658332820125735 0.3666530311391118 14.5433978735807550
78 3 -2.0 0.9049147852455018 6.0422173116340492 16.1630890382807237
79 3 -2.0 3.2402888188745393 6.0422173116340492 16.7367183672851425
80 3 -2.0 1.4304592483835359 0.3666530311391118 13.9697685445763291
81 1 2.0 2.6820376772291232 1.6022175856932903 17.6485083350248750
82 1 2.0 1.9887103900289516 4.8066527570798705 21.8312605516541645
83 1 2.0 4.3240844236579887 4.8066527570798705 19.8418288287292661
84 1 2.0 0.3466636436000856 1.6022175856932903 19.6379400579497734
85 2 4.0 0.0000000000000000 3.2044351713865806 17.5465639496351287
86 2 4.0 2.3353740336290376 3.2044351713865806 19.7398844433395197
87 2 4.0 0.0000000000000000 0.0000000000000000 17.5465639496351287
88 2 4.0 2.3353740336290376 0.0000000000000000 19.7398844433395197
89 3 -2.0 2.1769877960373920 1.6022175856932903 20.2437313521344926
90 3 -2.0 2.4937602712206828 4.8066527570798705 19.2360375345445433
91 3 -2.0 0.1583862375916453 4.8066527570798705 18.0504108584301051
92 3 -2.0 4.5123618296664292 1.6022175856932903 21.4293580282489380
93 3 -2.0 0.9049147852455018 3.5710882025256927 20.5497300256895024
94 3 -2.0 3.7658332820125735 2.8377821402474677 18.9300388609895371
95 3 -2.0 1.4304592483835359 2.8377821402474677 18.3564095319851113
96 3 -2.0 3.2402888188745393 3.5710882025256927 21.1233593546939282
97 3 -2.0 3.7658332820125735 0.3666530311391118 18.9300388609895371
98 3 -2.0 0.9049147852455018 6.0422173116340492 20.5497300256895024
99 3 -2.0 3.2402888188745393 6.0422173116340492 21.1233593546939282
100 3 -2.0 1.4304592483835359 0.3666530311391118 18.3564095319851113
101 1 2.0 2.6820376772291232 1.6022175856932903 22.0351493224336572
102 1 2.0 1.9887103900289516 4.8066527570798705 26.2179015390629466
103 1 2.0 4.3240844236579887 4.8066527570798705 24.2284698161380483
104 1 2.0 0.3466636436000856 1.6022175856932903 24.0245810453585555
105 2 4.0 0.0000000000000000 3.2044351713865806 21.9332049370439108
106 2 4.0 2.3353740336290376 3.2044351713865806 24.1265254307483019
107 2 4.0 0.0000000000000000 0.0000000000000000 21.9332049370439108
108 2 4.0 2.3353740336290376 0.0000000000000000 24.1265254307483019
109 3 -2.0 2.1769877960373920 1.6022175856932903 24.6303723395432748
110 3 -2.0 2.4937602712206828 4.8066527570798705 23.6226785219533255
111 3 -2.0 0.1583862375916453 4.8066527570798705 22.4370518458388872
112 3 -2.0 4.5123618296664292 1.6022175856932903 25.8159990156577202
113 3 -2.0 0.9049147852455018 3.5710882025256927 24.9363710130982845
114 3 -2.0 3.7658332820125735 2.8377821402474677 23.3166798483983193
115 3 -2.0 1.4304592483835359 2.8377821402474677 22.7430505193938934
116 3 -2.0 3.2402888188745393 3.5710882025256927 25.5100003421027104
117 3 -2.0 3.7658332820125735 0.3666530311391118 23.3166798483983193
118 3 -2.0 0.9049147852455018 6.0422173116340492 24.9363710130982845
119 3 -2.0 3.2402888188745393 6.0422173116340492 25.5100003421027104
120 3 -2.0 1.4304592483835359 0.3666530311391118 22.7430505193938934
121 1 2.0 2.6820376772291232 1.6022175856932903 26.4217903098424394
122 1 2.0 1.9887103900289516 4.8066527570798705 30.6045425264717288
123 1 2.0 4.3240844236579887 4.8066527570798705 28.6151108035468305
124 1 2.0 0.3466636436000856 1.6022175856932903 28.4112220327673377
125 2 4.0 0.0000000000000000 3.2044351713865806 26.3198459244526930
126 2 4.0 2.3353740336290376 3.2044351713865806 28.5131664181570841
127 2 4.0 0.0000000000000000 0.0000000000000000 26.3198459244526930
128 2 4.0 2.3353740336290376 0.0000000000000000 28.5131664181570841
129 3 -2.0 2.1769877960373920 1.6022175856932903 29.0170133269520569
130 3 -2.0 2.4937602712206828 4.8066527570798705 28.0093195093621077
131 3 -2.0 0.1583862375916453 4.8066527570798705 26.8236928332476694
132 3 -2.0 4.5123618296664292 1.6022175856932903 30.2026400030665023
133 3 -2.0 0.9049147852455018 3.5710882025256927 29.3230120005070667
134 3 -2.0 3.7658332820125735 2.8377821402474677 27.7033208358071015
135 3 -2.0 1.4304592483835359 2.8377821402474677 27.1296915068026756
136 3 -2.0 3.2402888188745393 3.5710882025256927 29.8966413295114926
137 3 -2.0 3.7658332820125735 0.3666530311391118 27.7033208358071015
138 3 -2.0 0.9049147852455018 6.0422173116340492 29.3230120005070667
139 3 -2.0 3.2402888188745393 6.0422173116340492 29.8966413295114926
140 3 -2.0 1.4304592483835359 0.3666530311391118 27.1296915068026756
141 1 2.0 2.6820376772291232 1.6022175856932903 30.8084312972512215
142 1 2.0 1.9887103900289516 4.8066527570798705 34.9911835138805074
143 1 2.0 4.3240844236579887 4.8066527570798705 33.0017517909556162
144 1 2.0 0.3466636436000856 1.6022175856932903 32.7978630201761163
145 2 4.0 0.0000000000000000 3.2044351713865806 30.7064869118614752
146 2 4.0 2.3353740336290376 3.2044351713865806 32.8998074055658662
147 2 4.0 0.0000000000000000 0.0000000000000000 30.7064869118614752
148 2 4.0 2.3353740336290376 0.0000000000000000 32.8998074055658662
149 3 -2.0 2.1769877960373920 1.6022175856932903 33.4036543143608355
150 3 -2.0 2.4937602712206828 4.8066527570798705 32.3959604967708898
151 3 -2.0 0.1583862375916453 4.8066527570798705 31.2103338206564516
152 3 -2.0 4.5123618296664292 1.6022175856932903 34.5892809904752880
153 3 -2.0 0.9049147852455018 3.5710882025256927 33.7096529879158524
154 3 -2.0 3.7658332820125735 2.8377821402474677 32.0899618232158801
155 3 -2.0 1.4304592483835359 2.8377821402474677 31.5163324942114578
156 3 -2.0 3.2402888188745393 3.5710882025256927 34.2832823169202712
157 3 -2.0 3.7658332820125735 0.3666530311391118 32.0899618232158801
158 3 -2.0 0.9049147852455018 6.0422173116340492 33.7096529879158524
159 3 -2.0 3.2402888188745393 6.0422173116340492 34.2832823169202712
160 3 -2.0 1.4304592483835359 0.3666530311391118 31.5163324942114578
161 1 2.0 2.6820376772291232 8.0110879284664520 0.1019443853897463
162 1 2.0 1.9887103900289516 11.2155230998530318 4.2846966020190349
163 1 2.0 4.3240844236579887 11.2155230998530318 2.2952648790941383
164 1 2.0 0.3466636436000856 8.0110879284664520 2.0913761083146447
165 2 4.0 0.0000000000000000 9.6133055141597410 0.0000000000000000
166 2 4.0 2.3353740336290376 9.6133055141597410 2.1933204937043911
167 2 4.0 0.0000000000000000 6.4088703427731613 0.0000000000000000
168 2 4.0 2.3353740336290376 6.4088703427731613 2.1933204937043911
169 3 -2.0 2.1769877960373920 8.0110879284664520 2.6971674024993644
170 3 -2.0 2.4937602712206828 11.2155230998530318 1.6894735849094176
171 3 -2.0 0.1583862375916453 11.2155230998530318 0.5038469087949736
172 3 -2.0 4.5123618296664292 8.0110879284664520 3.8827940786138089
173 3 -2.0 0.9049147852455018 9.9799585452988531 3.0031660760543750
174 3 -2.0 3.7658332820125735 9.2466524830206289 1.3834749113544080
175 3 -2.0 1.4304592483835359 9.2466524830206289 0.8098455823499836
176 3 -2.0 3.2402888188745393 9.9799585452988531 3.5767954050587982
177 3 -2.0 3.7658332820125735 6.7755233739122724 1.3834749113544080
178 3 -2.0 0.9049147852455018 12.4510876544072104 3.0031660760543750
179 3 -2.0 3.2402888188745393 12.4510876544072104 3.5767954050587982
180 3 -2.0 1.4304592483835359 6.7755233739122724 0.8098455823499836
181 1 2.0 2.6820376772291232 8.0110879284664520 4.4885853727985285
182 1 2.0 1.9887103900289516 11.2155230998530318 8.6713375894278162
183 1 2.0 4.3240844236579887 11.2155230998530318 6.6819058665029205
184 1 2.0 0.3466636436000856 8.0110879284664520 6.4780170957234269
185 2 4.0 0.0000000000000000 9.6133055141597410 4.3866409874087822
186 2 4.0 2.3353740336290376 9.6133055141597410 6.5799614811131732
187 2 4.0 0.0000000000000000 6.4088703427731613 4.3866409874087822
188 2 4.0 2.3353740336290376 6.4088703427731613 6.5799614811131732
189 3 -2.0 2.1769877960373920 8.0110879284664520 7.0838083899081470
190 3 -2.0 2.4937602712206828 11.2155230998530318 6.0761145723181995
191 3 -2.0 0.1583862375916453 11.2155230998530318 4.8904878962037559
192 3 -2.0 4.5123618296664292 8.0110879284664520 8.2694350660225915
193 3 -2.0 0.9049147852455018 9.9799585452988531 7.3898070634631576
194 3 -2.0 3.7658332820125735 9.2466524830206289 5.7701158987631906
195 3 -2.0 1.4304592483835359 9.2466524830206289 5.1964865697587657
196 3 -2.0 3.2402888188745393 9.9799585452988531 7.9634363924675799
197 3 -2.0 3.7658332820125735 6.7755233739122724 5.7701158987631906
198 3 -2.0 0.9049147852455018 12.4510876544072104 7.3898070634631576
199 3 -2.0 3.2402888188745393 12.4510876544072104 7.9634363924675799
200 3 -2.0 1.4304592483835359 6.7755233739122724 5.1964865697587657
201 1 2.0 2.6820376772291232 8.0110879284664520 8.8752263602073107
202 1 2.0 1.9887103900289516 11.2155230998530318 13.0579785768365984
203 1 2.0 4.3240844236579887 11.2155230998530318 11.0685468539117036
204 1 2.0 0.3466636436000856 8.0110879284664520 10.8646580831322090
205 2 4.0 0.0000000000000000 9.6133055141597410 8.7732819748175643
206 2 4.0 2.3353740336290376 9.6133055141597410 10.9666024685219554
207 2 4.0 0.0000000000000000 6.4088703427731613 8.7732819748175643
208 2 4.0 2.3353740336290376 6.4088703427731613 10.9666024685219554
209 3 -2.0 2.1769877960373920 8.0110879284664520 11.4704493773169283
210 3 -2.0 2.4937602712206828 11.2155230998530318 10.4627555597269826
211 3 -2.0 0.1583862375916453 11.2155230998530318 9.2771288836125372
212 3 -2.0 4.5123618296664292 8.0110879284664520 12.6560760534313737
213 3 -2.0 0.9049147852455018 9.9799585452988531 11.7764480508719398
214 3 -2.0 3.7658332820125735 9.2466524830206289 10.1567568861719728
215 3 -2.0 1.4304592483835359 9.2466524830206289 9.5831275571675469
216 3 -2.0 3.2402888188745393 9.9799585452988531 12.3500773798763621
217 3 -2.0 3.7658332820125735 6.7755233739122724 10.1567568861719728
218 3 -2.0 0.9049147852455018 12.4510876544072104 11.7764480508719398
219 3 -2.0 3.2402888188745393 12.4510876544072104 12.3500773798763621
220 3 -2.0 1.4304592483835359 6.7755233739122724 9.5831275571675469
221 1 2.0 2.6820376772291232 8.0110879284664520 13.2618673476160929
222 1 2.0 1.9887103900289516 11.2155230998530318 17.4446195642453823
223 1 2.0 4.3240844236579887 11.2155230998530318 15.4551878413204857
224 1 2.0 0.3466636436000856 8.0110879284664520 15.2512990705409912
225 2 4.0 0.0000000000000000 9.6133055141597410 13.1599229622263465
226 2 4.0 2.3353740336290376 9.6133055141597410 15.3532434559307376
227 2 4.0 0.0000000000000000 6.4088703427731613 13.1599229622263465
228 2 4.0 2.3353740336290376 6.4088703427731613 15.3532434559307376
229 3 -2.0 2.1769877960373920 8.0110879284664520 15.8570903647257104
230 3 -2.0 2.4937602712206828 11.2155230998530318 14.8493965471357647
231 3 -2.0 0.1583862375916453 11.2155230998530318 13.6637698710213193
232 3 -2.0 4.5123618296664292 8.0110879284664520 17.0427170408401558
233 3 -2.0 0.9049147852455018 9.9799585452988531 16.1630890382807237
234 3 -2.0 3.7658332820125735 9.2466524830206289 14.5433978735807550
235 3 -2.0 1.4304592483835359 9.2466524830206289 13.9697685445763291
236 3 -2.0 3.2402888188745393 9.9799585452988531 16.7367183672851425
237 3 -2.0 3.7658332820125735 6.7755233739122724 14.5433978735807550
238 3 -2.0 0.9049147852455018 12.4510876544072104 16.1630890382807237
239 3 -2.0 3.2402888188745393 12.4510876544072104 16.7367183672851425
240 3 -2.0 1.4304592483835359 6.7755233739122724 13.9697685445763291
241 1 2.0 2.6820376772291232 8.0110879284664520 17.6485083350248750
242 1 2.0 1.9887103900289516 11.2155230998530318 21.8312605516541645
243 1 2.0 4.3240844236579887 11.2155230998530318 19.8418288287292661
244 1 2.0 0.3466636436000856 8.0110879284664520 19.6379400579497734
245 2 4.0 0.0000000000000000 9.6133055141597410 17.5465639496351287
246 2 4.0 2.3353740336290376 9.6133055141597410 19.7398844433395197
247 2 4.0 0.0000000000000000 6.4088703427731613 17.5465639496351287
248 2 4.0 2.3353740336290376 6.4088703427731613 19.7398844433395197
249 3 -2.0 2.1769877960373920 8.0110879284664520 20.2437313521344926
250 3 -2.0 2.4937602712206828 11.2155230998530318 19.2360375345445433
251 3 -2.0 0.1583862375916453 11.2155230998530318 18.0504108584301051
252 3 -2.0 4.5123618296664292 8.0110879284664520 21.4293580282489380
253 3 -2.0 0.9049147852455018 9.9799585452988531 20.5497300256895024
254 3 -2.0 3.7658332820125735 9.2466524830206289 18.9300388609895371
255 3 -2.0 1.4304592483835359 9.2466524830206289 18.3564095319851113
256 3 -2.0 3.2402888188745393 9.9799585452988531 21.1233593546939282
257 3 -2.0 3.7658332820125735 6.7755233739122724 18.9300388609895371
258 3 -2.0 0.9049147852455018 12.4510876544072104 20.5497300256895024
259 3 -2.0 3.2402888188745393 12.4510876544072104 21.1233593546939282
260 3 -2.0 1.4304592483835359 6.7755233739122724 18.3564095319851113
261 1 2.0 2.6820376772291232 8.0110879284664520 22.0351493224336572
262 1 2.0 1.9887103900289516 11.2155230998530318 26.2179015390629466
263 1 2.0 4.3240844236579887 11.2155230998530318 24.2284698161380483
264 1 2.0 0.3466636436000856 8.0110879284664520 24.0245810453585555
265 2 4.0 0.0000000000000000 9.6133055141597410 21.9332049370439108
266 2 4.0 2.3353740336290376 9.6133055141597410 24.1265254307483019
267 2 4.0 0.0000000000000000 6.4088703427731613 21.9332049370439108
268 2 4.0 2.3353740336290376 6.4088703427731613 24.1265254307483019
269 3 -2.0 2.1769877960373920 8.0110879284664520 24.6303723395432748
270 3 -2.0 2.4937602712206828 11.2155230998530318 23.6226785219533255
271 3 -2.0 0.1583862375916453 11.2155230998530318 22.4370518458388872
272 3 -2.0 4.5123618296664292 8.0110879284664520 25.8159990156577202
273 3 -2.0 0.9049147852455018 9.9799585452988531 24.9363710130982845
274 3 -2.0 3.7658332820125735 9.2466524830206289 23.3166798483983193
275 3 -2.0 1.4304592483835359 9.2466524830206289 22.7430505193938934
276 3 -2.0 3.2402888188745393 9.9799585452988531 25.5100003421027104
277 3 -2.0 3.7658332820125735 6.7755233739122724 23.3166798483983193
278 3 -2.0 0.9049147852455018 12.4510876544072104 24.9363710130982845
279 3 -2.0 3.2402888188745393 12.4510876544072104 25.5100003421027104
280 3 -2.0 1.4304592483835359 6.7755233739122724 22.7430505193938934
281 1 2.0 2.6820376772291232 8.0110879284664520 26.4217903098424394
282 1 2.0 1.9887103900289516 11.2155230998530318 30.6045425264717288
283 1 2.0 4.3240844236579887 11.2155230998530318 28.6151108035468305
284 1 2.0 0.3466636436000856 8.0110879284664520 28.4112220327673377
285 2 4.0 0.0000000000000000 9.6133055141597410 26.3198459244526930
286 2 4.0 2.3353740336290376 9.6133055141597410 28.5131664181570841
287 2 4.0 0.0000000000000000 6.4088703427731613 26.3198459244526930
288 2 4.0 2.3353740336290376 6.4088703427731613 28.5131664181570841
289 3 -2.0 2.1769877960373920 8.0110879284664520 29.0170133269520569
290 3 -2.0 2.4937602712206828 11.2155230998530318 28.0093195093621077
291 3 -2.0 0.1583862375916453 11.2155230998530318 26.8236928332476694
292 3 -2.0 4.5123618296664292 8.0110879284664520 30.2026400030665023
293 3 -2.0 0.9049147852455018 9.9799585452988531 29.3230120005070667
294 3 -2.0 3.7658332820125735 9.2466524830206289 27.7033208358071015
295 3 -2.0 1.4304592483835359 9.2466524830206289 27.1296915068026756
296 3 -2.0 3.2402888188745393 9.9799585452988531 29.8966413295114926
297 3 -2.0 3.7658332820125735 6.7755233739122724 27.7033208358071015
298 3 -2.0 0.9049147852455018 12.4510876544072104 29.3230120005070667
299 3 -2.0 3.2402888188745393 12.4510876544072104 29.8966413295114926
300 3 -2.0 1.4304592483835359 6.7755233739122724 27.1296915068026756
301 1 2.0 2.6820376772291232 8.0110879284664520 30.8084312972512215
302 1 2.0 1.9887103900289516 11.2155230998530318 34.9911835138805074
303 1 2.0 4.3240844236579887 11.2155230998530318 33.0017517909556162
304 1 2.0 0.3466636436000856 8.0110879284664520 32.7978630201761163
305 2 4.0 0.0000000000000000 9.6133055141597410 30.7064869118614752
306 2 4.0 2.3353740336290376 9.6133055141597410 32.8998074055658662
307 2 4.0 0.0000000000000000 6.4088703427731613 30.7064869118614752
308 2 4.0 2.3353740336290376 6.4088703427731613 32.8998074055658662
309 3 -2.0 2.1769877960373920 8.0110879284664520 33.4036543143608355
310 3 -2.0 2.4937602712206828 11.2155230998530318 32.3959604967708898
311 3 -2.0 0.1583862375916453 11.2155230998530318 31.2103338206564516
312 3 -2.0 4.5123618296664292 8.0110879284664520 34.5892809904752880
313 3 -2.0 0.9049147852455018 9.9799585452988531 33.7096529879158524
314 3 -2.0 3.7658332820125735 9.2466524830206289 32.0899618232158801
315 3 -2.0 1.4304592483835359 9.2466524830206289 31.5163324942114578
316 3 -2.0 3.2402888188745393 9.9799585452988531 34.2832823169202712
317 3 -2.0 3.7658332820125735 6.7755233739122724 32.0899618232158801
318 3 -2.0 0.9049147852455018 12.4510876544072104 33.7096529879158524
319 3 -2.0 3.2402888188745393 12.4510876544072104 34.2832823169202712
320 3 -2.0 1.4304592483835359 6.7755233739122724 31.5163324942114578
321 1 2.0 2.6820376772291232 14.4199582712396133 0.1019443853897463
322 1 2.0 1.9887103900289516 17.6243934426261930 4.2846966020190349
323 1 2.0 4.3240844236579887 17.6243934426261930 2.2952648790941383
324 1 2.0 0.3466636436000856 14.4199582712396133 2.0913761083146447
325 2 4.0 0.0000000000000000 16.0221758569329040 0.0000000000000000
326 2 4.0 2.3353740336290376 16.0221758569329040 2.1933204937043911
327 2 4.0 0.0000000000000000 12.8177406855463225 0.0000000000000000
328 2 4.0 2.3353740336290376 12.8177406855463225 2.1933204937043911
329 3 -2.0 2.1769877960373920 14.4199582712396133 2.6971674024993644
330 3 -2.0 2.4937602712206828 17.6243934426261930 1.6894735849094176
331 3 -2.0 0.1583862375916453 17.6243934426261930 0.5038469087949736
332 3 -2.0 4.5123618296664292 14.4199582712396133 3.8827940786138089
333 3 -2.0 0.9049147852455018 16.3888288880720161 3.0031660760543750
334 3 -2.0 3.7658332820125735 15.6555228257937884 1.3834749113544080
335 3 -2.0 1.4304592483835359 15.6555228257937884 0.8098455823499836
336 3 -2.0 3.2402888188745393 16.3888288880720161 3.5767954050587982
337 3 -2.0 3.7658332820125735 13.1843937166854346 1.3834749113544080
338 3 -2.0 0.9049147852455018 18.8599579971803735 3.0031660760543750
339 3 -2.0 3.2402888188745393 18.8599579971803735 3.5767954050587982
340 3 -2.0 1.4304592483835359 13.1843937166854346 0.8098455823499836
341 1 2.0 2.6820376772291232 14.4199582712396133 4.4885853727985285
342 1 2.0 1.9887103900289516 17.6243934426261930 8.6713375894278162
343 1 2.0 4.3240844236579887 17.6243934426261930 6.6819058665029205
344 1 2.0 0.3466636436000856 14.4199582712396133 6.4780170957234269
345 2 4.0 0.0000000000000000 16.0221758569329040 4.3866409874087822
346 2 4.0 2.3353740336290376 16.0221758569329040 6.5799614811131732
347 2 4.0 0.0000000000000000 12.8177406855463225 4.3866409874087822
348 2 4.0 2.3353740336290376 12.8177406855463225 6.5799614811131732
349 3 -2.0 2.1769877960373920 14.4199582712396133 7.0838083899081470
350 3 -2.0 2.4937602712206828 17.6243934426261930 6.0761145723181995
351 3 -2.0 0.1583862375916453 17.6243934426261930 4.8904878962037559
352 3 -2.0 4.5123618296664292 14.4199582712396133 8.2694350660225915
353 3 -2.0 0.9049147852455018 16.3888288880720161 7.3898070634631576
354 3 -2.0 3.7658332820125735 15.6555228257937884 5.7701158987631906
355 3 -2.0 1.4304592483835359 15.6555228257937884 5.1964865697587657
356 3 -2.0 3.2402888188745393 16.3888288880720161 7.9634363924675799
357 3 -2.0 3.7658332820125735 13.1843937166854346 5.7701158987631906
358 3 -2.0 0.9049147852455018 18.8599579971803735 7.3898070634631576
359 3 -2.0 3.2402888188745393 18.8599579971803735 7.9634363924675799
360 3 -2.0 1.4304592483835359 13.1843937166854346 5.1964865697587657
361 1 2.0 2.6820376772291232 14.4199582712396133 8.8752263602073107
362 1 2.0 1.9887103900289516 17.6243934426261930 13.0579785768365984
363 1 2.0 4.3240844236579887 17.6243934426261930 11.0685468539117036
364 1 2.0 0.3466636436000856 14.4199582712396133 10.8646580831322090
365 2 4.0 0.0000000000000000 16.0221758569329040 8.7732819748175643
366 2 4.0 2.3353740336290376 16.0221758569329040 10.9666024685219554
367 2 4.0 0.0000000000000000 12.8177406855463225 8.7732819748175643
368 2 4.0 2.3353740336290376 12.8177406855463225 10.9666024685219554
369 3 -2.0 2.1769877960373920 14.4199582712396133 11.4704493773169283
370 3 -2.0 2.4937602712206828 17.6243934426261930 10.4627555597269826
371 3 -2.0 0.1583862375916453 17.6243934426261930 9.2771288836125372
372 3 -2.0 4.5123618296664292 14.4199582712396133 12.6560760534313737
373 3 -2.0 0.9049147852455018 16.3888288880720161 11.7764480508719398
374 3 -2.0 3.7658332820125735 15.6555228257937884 10.1567568861719728
375 3 -2.0 1.4304592483835359 15.6555228257937884 9.5831275571675469
376 3 -2.0 3.2402888188745393 16.3888288880720161 12.3500773798763621
377 3 -2.0 3.7658332820125735 13.1843937166854346 10.1567568861719728
378 3 -2.0 0.9049147852455018 18.8599579971803735 11.7764480508719398
379 3 -2.0 3.2402888188745393 18.8599579971803735 12.3500773798763621
380 3 -2.0 1.4304592483835359 13.1843937166854346 9.5831275571675469
381 1 2.0 2.6820376772291232 14.4199582712396133 13.2618673476160929
382 1 2.0 1.9887103900289516 17.6243934426261930 17.4446195642453823
383 1 2.0 4.3240844236579887 17.6243934426261930 15.4551878413204857
384 1 2.0 0.3466636436000856 14.4199582712396133 15.2512990705409912
385 2 4.0 0.0000000000000000 16.0221758569329040 13.1599229622263465
386 2 4.0 2.3353740336290376 16.0221758569329040 15.3532434559307376
387 2 4.0 0.0000000000000000 12.8177406855463225 13.1599229622263465
388 2 4.0 2.3353740336290376 12.8177406855463225 15.3532434559307376
389 3 -2.0 2.1769877960373920 14.4199582712396133 15.8570903647257104
390 3 -2.0 2.4937602712206828 17.6243934426261930 14.8493965471357647
391 3 -2.0 0.1583862375916453 17.6243934426261930 13.6637698710213193
392 3 -2.0 4.5123618296664292 14.4199582712396133 17.0427170408401558
393 3 -2.0 0.9049147852455018 16.3888288880720161 16.1630890382807237
394 3 -2.0 3.7658332820125735 15.6555228257937884 14.5433978735807550
395 3 -2.0 1.4304592483835359 15.6555228257937884 13.9697685445763291
396 3 -2.0 3.2402888188745393 16.3888288880720161 16.7367183672851425
397 3 -2.0 3.7658332820125735 13.1843937166854346 14.5433978735807550
398 3 -2.0 0.9049147852455018 18.8599579971803735 16.1630890382807237
399 3 -2.0 3.2402888188745393 18.8599579971803735 16.7367183672851425
400 3 -2.0 1.4304592483835359 13.1843937166854346 13.9697685445763291
401 1 2.0 2.6820376772291232 14.4199582712396133 17.6485083350248750
402 1 2.0 1.9887103900289516 17.6243934426261930 21.8312605516541645
403 1 2.0 4.3240844236579887 17.6243934426261930 19.8418288287292661
404 1 2.0 0.3466636436000856 14.4199582712396133 19.6379400579497734
405 2 4.0 0.0000000000000000 16.0221758569329040 17.5465639496351287
406 2 4.0 2.3353740336290376 16.0221758569329040 19.7398844433395197
407 2 4.0 0.0000000000000000 12.8177406855463225 17.5465639496351287
408 2 4.0 2.3353740336290376 12.8177406855463225 19.7398844433395197
409 3 -2.0 2.1769877960373920 14.4199582712396133 20.2437313521344926
410 3 -2.0 2.4937602712206828 17.6243934426261930 19.2360375345445433
411 3 -2.0 0.1583862375916453 17.6243934426261930 18.0504108584301051
412 3 -2.0 4.5123618296664292 14.4199582712396133 21.4293580282489380
413 3 -2.0 0.9049147852455018 16.3888288880720161 20.5497300256895024
414 3 -2.0 3.7658332820125735 15.6555228257937884 18.9300388609895371
415 3 -2.0 1.4304592483835359 15.6555228257937884 18.3564095319851113
416 3 -2.0 3.2402888188745393 16.3888288880720161 21.1233593546939282
417 3 -2.0 3.7658332820125735 13.1843937166854346 18.9300388609895371
418 3 -2.0 0.9049147852455018 18.8599579971803735 20.5497300256895024
419 3 -2.0 3.2402888188745393 18.8599579971803735 21.1233593546939282
420 3 -2.0 1.4304592483835359 13.1843937166854346 18.3564095319851113
421 1 2.0 2.6820376772291232 14.4199582712396133 22.0351493224336572
422 1 2.0 1.9887103900289516 17.6243934426261930 26.2179015390629466
423 1 2.0 4.3240844236579887 17.6243934426261930 24.2284698161380483
424 1 2.0 0.3466636436000856 14.4199582712396133 24.0245810453585555
425 2 4.0 0.0000000000000000 16.0221758569329040 21.9332049370439108
426 2 4.0 2.3353740336290376 16.0221758569329040 24.1265254307483019
427 2 4.0 0.0000000000000000 12.8177406855463225 21.9332049370439108
428 2 4.0 2.3353740336290376 12.8177406855463225 24.1265254307483019
429 3 -2.0 2.1769877960373920 14.4199582712396133 24.6303723395432748
430 3 -2.0 2.4937602712206828 17.6243934426261930 23.6226785219533255
431 3 -2.0 0.1583862375916453 17.6243934426261930 22.4370518458388872
432 3 -2.0 4.5123618296664292 14.4199582712396133 25.8159990156577202
433 3 -2.0 0.9049147852455018 16.3888288880720161 24.9363710130982845
434 3 -2.0 3.7658332820125735 15.6555228257937884 23.3166798483983193
435 3 -2.0 1.4304592483835359 15.6555228257937884 22.7430505193938934
436 3 -2.0 3.2402888188745393 16.3888288880720161 25.5100003421027104
437 3 -2.0 3.7658332820125735 13.1843937166854346 23.3166798483983193
438 3 -2.0 0.9049147852455018 18.8599579971803735 24.9363710130982845
439 3 -2.0 3.2402888188745393 18.8599579971803735 25.5100003421027104
440 3 -2.0 1.4304592483835359 13.1843937166854346 22.7430505193938934
441 1 2.0 2.6820376772291232 14.4199582712396133 26.4217903098424394
442 1 2.0 1.9887103900289516 17.6243934426261930 30.6045425264717288
443 1 2.0 4.3240844236579887 17.6243934426261930 28.6151108035468305
444 1 2.0 0.3466636436000856 14.4199582712396133 28.4112220327673377
445 2 4.0 0.0000000000000000 16.0221758569329040 26.3198459244526930
446 2 4.0 2.3353740336290376 16.0221758569329040 28.5131664181570841
447 2 4.0 0.0000000000000000 12.8177406855463225 26.3198459244526930
448 2 4.0 2.3353740336290376 12.8177406855463225 28.5131664181570841
449 3 -2.0 2.1769877960373920 14.4199582712396133 29.0170133269520569
450 3 -2.0 2.4937602712206828 17.6243934426261930 28.0093195093621077
451 3 -2.0 0.1583862375916453 17.6243934426261930 26.8236928332476694
452 3 -2.0 4.5123618296664292 14.4199582712396133 30.2026400030665023
453 3 -2.0 0.9049147852455018 16.3888288880720161 29.3230120005070667
454 3 -2.0 3.7658332820125735 15.6555228257937884 27.7033208358071015
455 3 -2.0 1.4304592483835359 15.6555228257937884 27.1296915068026756
456 3 -2.0 3.2402888188745393 16.3888288880720161 29.8966413295114926
457 3 -2.0 3.7658332820125735 13.1843937166854346 27.7033208358071015
458 3 -2.0 0.9049147852455018 18.8599579971803735 29.3230120005070667
459 3 -2.0 3.2402888188745393 18.8599579971803735 29.8966413295114926
460 3 -2.0 1.4304592483835359 13.1843937166854346 27.1296915068026756
461 1 2.0 2.6820376772291232 14.4199582712396133 30.8084312972512215
462 1 2.0 1.9887103900289516 17.6243934426261930 34.9911835138805074
463 1 2.0 4.3240844236579887 17.6243934426261930 33.0017517909556162
464 1 2.0 0.3466636436000856 14.4199582712396133 32.7978630201761163
465 2 4.0 0.0000000000000000 16.0221758569329040 30.7064869118614752
466 2 4.0 2.3353740336290376 16.0221758569329040 32.8998074055658662
467 2 4.0 0.0000000000000000 12.8177406855463225 30.7064869118614752
468 2 4.0 2.3353740336290376 12.8177406855463225 32.8998074055658662
469 3 -2.0 2.1769877960373920 14.4199582712396133 33.4036543143608355
470 3 -2.0 2.4937602712206828 17.6243934426261930 32.3959604967708898
471 3 -2.0 0.1583862375916453 17.6243934426261930 31.2103338206564516
472 3 -2.0 4.5123618296664292 14.4199582712396133 34.5892809904752880
473 3 -2.0 0.9049147852455018 16.3888288880720161 33.7096529879158524
474 3 -2.0 3.7658332820125735 15.6555228257937884 32.0899618232158801
475 3 -2.0 1.4304592483835359 15.6555228257937884 31.5163324942114578
476 3 -2.0 3.2402888188745393 16.3888288880720161 34.2832823169202712
477 3 -2.0 3.7658332820125735 13.1843937166854346 32.0899618232158801
478 3 -2.0 0.9049147852455018 18.8599579971803735 33.7096529879158524
479 3 -2.0 3.2402888188745393 18.8599579971803735 34.2832823169202712
480 3 -2.0 1.4304592483835359 13.1843937166854346 31.5163324942114578
481 1 2.0 2.6820376772291232 20.8288286140127745 0.1019443853897463
482 1 2.0 1.9887103900289516 24.0332637853993560 4.2846966020190349
483 1 2.0 4.3240844236579887 24.0332637853993560 2.2952648790941383
484 1 2.0 0.3466636436000856 20.8288286140127745 2.0913761083146447
485 2 4.0 0.0000000000000000 22.4310461997060635 0.0000000000000000
486 2 4.0 2.3353740336290376 22.4310461997060635 2.1933204937043911
487 2 4.0 0.0000000000000000 19.2266110283194820 0.0000000000000000
488 2 4.0 2.3353740336290376 19.2266110283194820 2.1933204937043911
489 3 -2.0 2.1769877960373920 20.8288286140127745 2.6971674024993644
490 3 -2.0 2.4937602712206828 24.0332637853993560 1.6894735849094176
491 3 -2.0 0.1583862375916453 24.0332637853993560 0.5038469087949736
492 3 -2.0 4.5123618296664292 20.8288286140127745 3.8827940786138089
493 3 -2.0 0.9049147852455018 22.7976992308451756 3.0031660760543750
494 3 -2.0 3.7658332820125735 22.0643931685669514 1.3834749113544080
495 3 -2.0 1.4304592483835359 22.0643931685669514 0.8098455823499836
496 3 -2.0 3.2402888188745393 22.7976992308451756 3.5767954050587982
497 3 -2.0 3.7658332820125735 19.5932640594585941 1.3834749113544080
498 3 -2.0 0.9049147852455018 25.2688283399535329 3.0031660760543750
499 3 -2.0 3.2402888188745393 25.2688283399535329 3.5767954050587982
500 3 -2.0 1.4304592483835359 19.5932640594585941 0.8098455823499836
501 1 2.0 2.6820376772291232 20.8288286140127745 4.4885853727985285
502 1 2.0 1.9887103900289516 24.0332637853993560 8.6713375894278162
503 1 2.0 4.3240844236579887 24.0332637853993560 6.6819058665029205
504 1 2.0 0.3466636436000856 20.8288286140127745 6.4780170957234269
505 2 4.0 0.0000000000000000 22.4310461997060635 4.3866409874087822
506 2 4.0 2.3353740336290376 22.4310461997060635 6.5799614811131732
507 2 4.0 0.0000000000000000 19.2266110283194820 4.3866409874087822
508 2 4.0 2.3353740336290376 19.2266110283194820 6.5799614811131732
509 3 -2.0 2.1769877960373920 20.8288286140127745 7.0838083899081470
510 3 -2.0 2.4937602712206828 24.0332637853993560 6.0761145723181995
511 3 -2.0 0.1583862375916453 24.0332637853993560 4.8904878962037559
512 3 -2.0 4.5123618296664292 20.8288286140127745 8.2694350660225915
513 3 -2.0 0.9049147852455018 22.7976992308451756 7.3898070634631576
514 3 -2.0 3.7658332820125735 22.0643931685669514 5.7701158987631906
515 3 -2.0 1.4304592483835359 22.0643931685669514 5.1964865697587657
516 3 -2.0 3.2402888188745393 22.7976992308451756 7.9634363924675799
517 3 -2.0 3.7658332820125735 19.5932640594585941 5.7701158987631906
518 3 -2.0 0.9049147852455018 25.2688283399535329 7.3898070634631576
519 3 -2.0 3.2402888188745393 25.2688283399535329 7.9634363924675799
520 3 -2.0 1.4304592483835359 19.5932640594585941 5.1964865697587657
521 1 2.0 2.6820376772291232 20.8288286140127745 8.8752263602073107
522 1 2.0 1.9887103900289516 24.0332637853993560 13.0579785768365984
523 1 2.0 4.3240844236579887 24.0332637853993560 11.0685468539117036
524 1 2.0 0.3466636436000856 20.8288286140127745 10.8646580831322090
525 2 4.0 0.0000000000000000 22.4310461997060635 8.7732819748175643
526 2 4.0 2.3353740336290376 22.4310461997060635 10.9666024685219554
527 2 4.0 0.0000000000000000 19.2266110283194820 8.7732819748175643
528 2 4.0 2.3353740336290376 19.2266110283194820 10.9666024685219554
529 3 -2.0 2.1769877960373920 20.8288286140127745 11.4704493773169283
530 3 -2.0 2.4937602712206828 24.0332637853993560 10.4627555597269826
531 3 -2.0 0.1583862375916453 24.0332637853993560 9.2771288836125372
532 3 -2.0 4.5123618296664292 20.8288286140127745 12.6560760534313737
533 3 -2.0 0.9049147852455018 22.7976992308451756 11.7764480508719398
534 3 -2.0 3.7658332820125735 22.0643931685669514 10.1567568861719728
535 3 -2.0 1.4304592483835359 22.0643931685669514 9.5831275571675469
536 3 -2.0 3.2402888188745393 22.7976992308451756 12.3500773798763621
537 3 -2.0 3.7658332820125735 19.5932640594585941 10.1567568861719728
538 3 -2.0 0.9049147852455018 25.2688283399535329 11.7764480508719398
539 3 -2.0 3.2402888188745393 25.2688283399535329 12.3500773798763621
540 3 -2.0 1.4304592483835359 19.5932640594585941 9.5831275571675469
541 1 2.0 2.6820376772291232 20.8288286140127745 13.2618673476160929
542 1 2.0 1.9887103900289516 24.0332637853993560 17.4446195642453823
543 1 2.0 4.3240844236579887 24.0332637853993560 15.4551878413204857
544 1 2.0 0.3466636436000856 20.8288286140127745 15.2512990705409912
545 2 4.0 0.0000000000000000 22.4310461997060635 13.1599229622263465
546 2 4.0 2.3353740336290376 22.4310461997060635 15.3532434559307376
547 2 4.0 0.0000000000000000 19.2266110283194820 13.1599229622263465
548 2 4.0 2.3353740336290376 19.2266110283194820 15.3532434559307376
549 3 -2.0 2.1769877960373920 20.8288286140127745 15.8570903647257104
550 3 -2.0 2.4937602712206828 24.0332637853993560 14.8493965471357647
551 3 -2.0 0.1583862375916453 24.0332637853993560 13.6637698710213193
552 3 -2.0 4.5123618296664292 20.8288286140127745 17.0427170408401558
553 3 -2.0 0.9049147852455018 22.7976992308451756 16.1630890382807237
554 3 -2.0 3.7658332820125735 22.0643931685669514 14.5433978735807550
555 3 -2.0 1.4304592483835359 22.0643931685669514 13.9697685445763291
556 3 -2.0 3.2402888188745393 22.7976992308451756 16.7367183672851425
557 3 -2.0 3.7658332820125735 19.5932640594585941 14.5433978735807550
558 3 -2.0 0.9049147852455018 25.2688283399535329 16.1630890382807237
559 3 -2.0 3.2402888188745393 25.2688283399535329 16.7367183672851425
560 3 -2.0 1.4304592483835359 19.5932640594585941 13.9697685445763291
561 1 2.0 2.6820376772291232 20.8288286140127745 17.6485083350248750
562 1 2.0 1.9887103900289516 24.0332637853993560 21.8312605516541645
563 1 2.0 4.3240844236579887 24.0332637853993560 19.8418288287292661
564 1 2.0 0.3466636436000856 20.8288286140127745 19.6379400579497734
565 2 4.0 0.0000000000000000 22.4310461997060635 17.5465639496351287
566 2 4.0 2.3353740336290376 22.4310461997060635 19.7398844433395197
567 2 4.0 0.0000000000000000 19.2266110283194820 17.5465639496351287
568 2 4.0 2.3353740336290376 19.2266110283194820 19.7398844433395197
569 3 -2.0 2.1769877960373920 20.8288286140127745 20.2437313521344926
570 3 -2.0 2.4937602712206828 24.0332637853993560 19.2360375345445433
571 3 -2.0 0.1583862375916453 24.0332637853993560 18.0504108584301051
572 3 -2.0 4.5123618296664292 20.8288286140127745 21.4293580282489380
573 3 -2.0 0.9049147852455018 22.7976992308451756 20.5497300256895024
574 3 -2.0 3.7658332820125735 22.0643931685669514 18.9300388609895371
575 3 -2.0 1.4304592483835359 22.0643931685669514 18.3564095319851113
576 3 -2.0 3.2402888188745393 22.7976992308451756 21.1233593546939282
577 3 -2.0 3.7658332820125735 19.5932640594585941 18.9300388609895371
578 3 -2.0 0.9049147852455018 25.2688283399535329 20.5497300256895024
579 3 -2.0 3.2402888188745393 25.2688283399535329 21.1233593546939282
580 3 -2.0 1.4304592483835359 19.5932640594585941 18.3564095319851113
581 1 2.0 2.6820376772291232 20.8288286140127745 22.0351493224336572
582 1 2.0 1.9887103900289516 24.0332637853993560 26.2179015390629466
583 1 2.0 4.3240844236579887 24.0332637853993560 24.2284698161380483
584 1 2.0 0.3466636436000856 20.8288286140127745 24.0245810453585555
585 2 4.0 0.0000000000000000 22.4310461997060635 21.9332049370439108
586 2 4.0 2.3353740336290376 22.4310461997060635 24.1265254307483019
587 2 4.0 0.0000000000000000 19.2266110283194820 21.9332049370439108
588 2 4.0 2.3353740336290376 19.2266110283194820 24.1265254307483019
589 3 -2.0 2.1769877960373920 20.8288286140127745 24.6303723395432748
590 3 -2.0 2.4937602712206828 24.0332637853993560 23.6226785219533255
591 3 -2.0 0.1583862375916453 24.0332637853993560 22.4370518458388872
592 3 -2.0 4.5123618296664292 20.8288286140127745 25.8159990156577202
593 3 -2.0 0.9049147852455018 22.7976992308451756 24.9363710130982845
594 3 -2.0 3.7658332820125735 22.0643931685669514 23.3166798483983193
595 3 -2.0 1.4304592483835359 22.0643931685669514 22.7430505193938934
596 3 -2.0 3.2402888188745393 22.7976992308451756 25.5100003421027104
597 3 -2.0 3.7658332820125735 19.5932640594585941 23.3166798483983193
598 3 -2.0 0.9049147852455018 25.2688283399535329 24.9363710130982845
599 3 -2.0 3.2402888188745393 25.2688283399535329 25.5100003421027104
600 3 -2.0 1.4304592483835359 19.5932640594585941 22.7430505193938934
601 1 2.0 2.6820376772291232 20.8288286140127745 26.4217903098424394
602 1 2.0 1.9887103900289516 24.0332637853993560 30.6045425264717288
603 1 2.0 4.3240844236579887 24.0332637853993560 28.6151108035468305
604 1 2.0 0.3466636436000856 20.8288286140127745 28.4112220327673377
605 2 4.0 0.0000000000000000 22.4310461997060635 26.3198459244526930
606 2 4.0 2.3353740336290376 22.4310461997060635 28.5131664181570841
607 2 4.0 0.0000000000000000 19.2266110283194820 26.3198459244526930
608 2 4.0 2.3353740336290376 19.2266110283194820 28.5131664181570841
609 3 -2.0 2.1769877960373920 20.8288286140127745 29.0170133269520569
610 3 -2.0 2.4937602712206828 24.0332637853993560 28.0093195093621077
611 3 -2.0 0.1583862375916453 24.0332637853993560 26.8236928332476694
612 3 -2.0 4.5123618296664292 20.8288286140127745 30.2026400030665023
613 3 -2.0 0.9049147852455018 22.7976992308451756 29.3230120005070667
614 3 -2.0 3.7658332820125735 22.0643931685669514 27.7033208358071015
615 3 -2.0 1.4304592483835359 22.0643931685669514 27.1296915068026756
616 3 -2.0 3.2402888188745393 22.7976992308451756 29.8966413295114926
617 3 -2.0 3.7658332820125735 19.5932640594585941 27.7033208358071015
618 3 -2.0 0.9049147852455018 25.2688283399535329 29.3230120005070667
619 3 -2.0 3.2402888188745393 25.2688283399535329 29.8966413295114926
620 3 -2.0 1.4304592483835359 19.5932640594585941 27.1296915068026756
621 1 2.0 2.6820376772291232 20.8288286140127745 30.8084312972512215
622 1 2.0 1.9887103900289516 24.0332637853993560 34.9911835138805074
623 1 2.0 4.3240844236579887 24.0332637853993560 33.0017517909556162
624 1 2.0 0.3466636436000856 20.8288286140127745 32.7978630201761163
625 2 4.0 0.0000000000000000 22.4310461997060635 30.7064869118614752
626 2 4.0 2.3353740336290376 22.4310461997060635 32.8998074055658662
627 2 4.0 0.0000000000000000 19.2266110283194820 30.7064869118614752
628 2 4.0 2.3353740336290376 19.2266110283194820 32.8998074055658662
629 3 -2.0 2.1769877960373920 20.8288286140127745 33.4036543143608355
630 3 -2.0 2.4937602712206828 24.0332637853993560 32.3959604967708898
631 3 -2.0 0.1583862375916453 24.0332637853993560 31.2103338206564516
632 3 -2.0 4.5123618296664292 20.8288286140127745 34.5892809904752880
633 3 -2.0 0.9049147852455018 22.7976992308451756 33.7096529879158524
634 3 -2.0 3.7658332820125735 22.0643931685669514 32.0899618232158801
635 3 -2.0 1.4304592483835359 22.0643931685669514 31.5163324942114578
636 3 -2.0 3.2402888188745393 22.7976992308451756 34.2832823169202712
637 3 -2.0 3.7658332820125735 19.5932640594585941 32.0899618232158801
638 3 -2.0 0.9049147852455018 25.2688283399535329 33.7096529879158524
639 3 -2.0 3.2402888188745393 25.2688283399535329 34.2832823169202712
640 3 -2.0 1.4304592483835359 19.5932640594585941 31.5163324942114578
641 1 2.0 2.6820376772291232 27.2376989567859340 0.1019443853897463
642 1 2.0 1.9887103900289516 30.4421341281725155 4.2846966020190349
643 1 2.0 4.3240844236579887 30.4421341281725155 2.2952648790941383
644 1 2.0 0.3466636436000856 27.2376989567859340 2.0913761083146447
645 2 4.0 0.0000000000000000 28.8399165424792265 0.0000000000000000
646 2 4.0 2.3353740336290376 28.8399165424792265 2.1933204937043911
647 2 4.0 0.0000000000000000 25.6354813710926450 0.0000000000000000
648 2 4.0 2.3353740336290376 25.6354813710926450 2.1933204937043911
649 3 -2.0 2.1769877960373920 27.2376989567859340 2.6971674024993644
650 3 -2.0 2.4937602712206828 30.4421341281725155 1.6894735849094176
651 3 -2.0 0.1583862375916453 30.4421341281725155 0.5038469087949736
652 3 -2.0 4.5123618296664292 27.2376989567859340 3.8827940786138089
653 3 -2.0 0.9049147852455018 29.2065695736183386 3.0031660760543750
654 3 -2.0 3.7658332820125735 28.4732635113401109 1.3834749113544080
655 3 -2.0 1.4304592483835359 28.4732635113401109 0.8098455823499836
656 3 -2.0 3.2402888188745393 29.2065695736183386 3.5767954050587982
657 3 -2.0 3.7658332820125735 26.0021344022317606 1.3834749113544080
658 3 -2.0 0.9049147852455018 31.6776986827266924 3.0031660760543750
659 3 -2.0 3.2402888188745393 31.6776986827266924 3.5767954050587982
660 3 -2.0 1.4304592483835359 26.0021344022317606 0.8098455823499836
661 1 2.0 2.6820376772291232 27.2376989567859340 4.4885853727985285
662 1 2.0 1.9887103900289516 30.4421341281725155 8.6713375894278162
663 1 2.0 4.3240844236579887 30.4421341281725155 6.6819058665029205
664 1 2.0 0.3466636436000856 27.2376989567859340 6.4780170957234269
665 2 4.0 0.0000000000000000 28.8399165424792265 4.3866409874087822
666 2 4.0 2.3353740336290376 28.8399165424792265 6.5799614811131732
667 2 4.0 0.0000000000000000 25.6354813710926450 4.3866409874087822
668 2 4.0 2.3353740336290376 25.6354813710926450 6.5799614811131732
669 3 -2.0 2.1769877960373920 27.2376989567859340 7.0838083899081470
670 3 -2.0 2.4937602712206828 30.4421341281725155 6.0761145723181995
671 3 -2.0 0.1583862375916453 30.4421341281725155 4.8904878962037559
672 3 -2.0 4.5123618296664292 27.2376989567859340 8.2694350660225915
673 3 -2.0 0.9049147852455018 29.2065695736183386 7.3898070634631576
674 3 -2.0 3.7658332820125735 28.4732635113401109 5.7701158987631906
675 3 -2.0 1.4304592483835359 28.4732635113401109 5.1964865697587657
676 3 -2.0 3.2402888188745393 29.2065695736183386 7.9634363924675799
677 3 -2.0 3.7658332820125735 26.0021344022317606 5.7701158987631906
678 3 -2.0 0.9049147852455018 31.6776986827266924 7.3898070634631576
679 3 -2.0 3.2402888188745393 31.6776986827266924 7.9634363924675799
680 3 -2.0 1.4304592483835359 26.0021344022317606 5.1964865697587657
681 1 2.0 2.6820376772291232 27.2376989567859340 8.8752263602073107
682 1 2.0 1.9887103900289516 30.4421341281725155 13.0579785768365984
683 1 2.0 4.3240844236579887 30.4421341281725155 11.0685468539117036
684 1 2.0 0.3466636436000856 27.2376989567859340 10.8646580831322090
685 2 4.0 0.0000000000000000 28.8399165424792265 8.7732819748175643
686 2 4.0 2.3353740336290376 28.8399165424792265 10.9666024685219554
687 2 4.0 0.0000000000000000 25.6354813710926450 8.7732819748175643
688 2 4.0 2.3353740336290376 25.6354813710926450 10.9666024685219554
689 3 -2.0 2.1769877960373920 27.2376989567859340 11.4704493773169283
690 3 -2.0 2.4937602712206828 30.4421341281725155 10.4627555597269826
691 3 -2.0 0.1583862375916453 30.4421341281725155 9.2771288836125372
692 3 -2.0 4.5123618296664292 27.2376989567859340 12.6560760534313737
693 3 -2.0 0.9049147852455018 29.2065695736183386 11.7764480508719398
694 3 -2.0 3.7658332820125735 28.4732635113401109 10.1567568861719728
695 3 -2.0 1.4304592483835359 28.4732635113401109 9.5831275571675469
696 3 -2.0 3.2402888188745393 29.2065695736183386 12.3500773798763621
697 3 -2.0 3.7658332820125735 26.0021344022317606 10.1567568861719728
698 3 -2.0 0.9049147852455018 31.6776986827266924 11.7764480508719398
699 3 -2.0 3.2402888188745393 31.6776986827266924 12.3500773798763621
700 3 -2.0 1.4304592483835359 26.0021344022317606 9.5831275571675469
701 1 2.0 2.6820376772291232 27.2376989567859340 13.2618673476160929
702 1 2.0 1.9887103900289516 30.4421341281725155 17.4446195642453823
703 1 2.0 4.3240844236579887 30.4421341281725155 15.4551878413204857
704 1 2.0 0.3466636436000856 27.2376989567859340 15.2512990705409912
705 2 4.0 0.0000000000000000 28.8399165424792265 13.1599229622263465
706 2 4.0 2.3353740336290376 28.8399165424792265 15.3532434559307376
707 2 4.0 0.0000000000000000 25.6354813710926450 13.1599229622263465
708 2 4.0 2.3353740336290376 25.6354813710926450 15.3532434559307376
709 3 -2.0 2.1769877960373920 27.2376989567859340 15.8570903647257104
710 3 -2.0 2.4937602712206828 30.4421341281725155 14.8493965471357647
711 3 -2.0 0.1583862375916453 30.4421341281725155 13.6637698710213193
712 3 -2.0 4.5123618296664292 27.2376989567859340 17.0427170408401558
713 3 -2.0 0.9049147852455018 29.2065695736183386 16.1630890382807237
714 3 -2.0 3.7658332820125735 28.4732635113401109 14.5433978735807550
715 3 -2.0 1.4304592483835359 28.4732635113401109 13.9697685445763291
716 3 -2.0 3.2402888188745393 29.2065695736183386 16.7367183672851425
717 3 -2.0 3.7658332820125735 26.0021344022317606 14.5433978735807550
718 3 -2.0 0.9049147852455018 31.6776986827266924 16.1630890382807237
719 3 -2.0 3.2402888188745393 31.6776986827266924 16.7367183672851425
720 3 -2.0 1.4304592483835359 26.0021344022317606 13.9697685445763291
721 1 2.0 2.6820376772291232 27.2376989567859340 17.6485083350248750
722 1 2.0 1.9887103900289516 30.4421341281725155 21.8312605516541645
723 1 2.0 4.3240844236579887 30.4421341281725155 19.8418288287292661
724 1 2.0 0.3466636436000856 27.2376989567859340 19.6379400579497734
725 2 4.0 0.0000000000000000 28.8399165424792265 17.5465639496351287
726 2 4.0 2.3353740336290376 28.8399165424792265 19.7398844433395197
727 2 4.0 0.0000000000000000 25.6354813710926450 17.5465639496351287
728 2 4.0 2.3353740336290376 25.6354813710926450 19.7398844433395197
729 3 -2.0 2.1769877960373920 27.2376989567859340 20.2437313521344926
730 3 -2.0 2.4937602712206828 30.4421341281725155 19.2360375345445433
731 3 -2.0 0.1583862375916453 30.4421341281725155 18.0504108584301051
732 3 -2.0 4.5123618296664292 27.2376989567859340 21.4293580282489380
733 3 -2.0 0.9049147852455018 29.2065695736183386 20.5497300256895024
734 3 -2.0 3.7658332820125735 28.4732635113401109 18.9300388609895371
735 3 -2.0 1.4304592483835359 28.4732635113401109 18.3564095319851113
736 3 -2.0 3.2402888188745393 29.2065695736183386 21.1233593546939282
737 3 -2.0 3.7658332820125735 26.0021344022317606 18.9300388609895371
738 3 -2.0 0.9049147852455018 31.6776986827266924 20.5497300256895024
739 3 -2.0 3.2402888188745393 31.6776986827266924 21.1233593546939282
740 3 -2.0 1.4304592483835359 26.0021344022317606 18.3564095319851113
741 1 2.0 2.6820376772291232 27.2376989567859340 22.0351493224336572
742 1 2.0 1.9887103900289516 30.4421341281725155 26.2179015390629466
743 1 2.0 4.3240844236579887 30.4421341281725155 24.2284698161380483
744 1 2.0 0.3466636436000856 27.2376989567859340 24.0245810453585555
745 2 4.0 0.0000000000000000 28.8399165424792265 21.9332049370439108
746 2 4.0 2.3353740336290376 28.8399165424792265 24.1265254307483019
747 2 4.0 0.0000000000000000 25.6354813710926450 21.9332049370439108
748 2 4.0 2.3353740336290376 25.6354813710926450 24.1265254307483019
749 3 -2.0 2.1769877960373920 27.2376989567859340 24.6303723395432748
750 3 -2.0 2.4937602712206828 30.4421341281725155 23.6226785219533255
751 3 -2.0 0.1583862375916453 30.4421341281725155 22.4370518458388872
752 3 -2.0 4.5123618296664292 27.2376989567859340 25.8159990156577202
753 3 -2.0 0.9049147852455018 29.2065695736183386 24.9363710130982845
754 3 -2.0 3.7658332820125735 28.4732635113401109 23.3166798483983193
755 3 -2.0 1.4304592483835359 28.4732635113401109 22.7430505193938934
756 3 -2.0 3.2402888188745393 29.2065695736183386 25.5100003421027104
757 3 -2.0 3.7658332820125735 26.0021344022317606 23.3166798483983193
758 3 -2.0 0.9049147852455018 31.6776986827266924 24.9363710130982845
759 3 -2.0 3.2402888188745393 31.6776986827266924 25.5100003421027104
760 3 -2.0 1.4304592483835359 26.0021344022317606 22.7430505193938934
761 1 2.0 2.6820376772291232 27.2376989567859340 26.4217903098424394
762 1 2.0 1.9887103900289516 30.4421341281725155 30.6045425264717288
763 1 2.0 4.3240844236579887 30.4421341281725155 28.6151108035468305
764 1 2.0 0.3466636436000856 27.2376989567859340 28.4112220327673377
765 2 4.0 0.0000000000000000 28.8399165424792265 26.3198459244526930
766 2 4.0 2.3353740336290376 28.8399165424792265 28.5131664181570841
767 2 4.0 0.0000000000000000 25.6354813710926450 26.3198459244526930
768 2 4.0 2.3353740336290376 25.6354813710926450 28.5131664181570841
769 3 -2.0 2.1769877960373920 27.2376989567859340 29.0170133269520569
770 3 -2.0 2.4937602712206828 30.4421341281725155 28.0093195093621077
771 3 -2.0 0.1583862375916453 30.4421341281725155 26.8236928332476694
772 3 -2.0 4.5123618296664292 27.2376989567859340 30.2026400030665023
773 3 -2.0 0.9049147852455018 29.2065695736183386 29.3230120005070667
774 3 -2.0 3.7658332820125735 28.4732635113401109 27.7033208358071015
775 3 -2.0 1.4304592483835359 28.4732635113401109 27.1296915068026756
776 3 -2.0 3.2402888188745393 29.2065695736183386 29.8966413295114926
777 3 -2.0 3.7658332820125735 26.0021344022317606 27.7033208358071015
778 3 -2.0 0.9049147852455018 31.6776986827266924 29.3230120005070667
779 3 -2.0 3.2402888188745393 31.6776986827266924 29.8966413295114926
780 3 -2.0 1.4304592483835359 26.0021344022317606 27.1296915068026756
781 1 2.0 2.6820376772291232 27.2376989567859340 30.8084312972512215
782 1 2.0 1.9887103900289516 30.4421341281725155 34.9911835138805074
783 1 2.0 4.3240844236579887 30.4421341281725155 33.0017517909556162
784 1 2.0 0.3466636436000856 27.2376989567859340 32.7978630201761163
785 2 4.0 0.0000000000000000 28.8399165424792265 30.7064869118614752
786 2 4.0 2.3353740336290376 28.8399165424792265 32.8998074055658662
787 2 4.0 0.0000000000000000 25.6354813710926450 30.7064869118614752
788 2 4.0 2.3353740336290376 25.6354813710926450 32.8998074055658662
789 3 -2.0 2.1769877960373920 27.2376989567859340 33.4036543143608355
790 3 -2.0 2.4937602712206828 30.4421341281725155 32.3959604967708898
791 3 -2.0 0.1583862375916453 30.4421341281725155 31.2103338206564516
792 3 -2.0 4.5123618296664292 27.2376989567859340 34.5892809904752880
793 3 -2.0 0.9049147852455018 29.2065695736183386 33.7096529879158524
794 3 -2.0 3.7658332820125735 28.4732635113401109 32.0899618232158801
795 3 -2.0 1.4304592483835359 28.4732635113401109 31.5163324942114578
796 3 -2.0 3.2402888188745393 29.2065695736183386 34.2832823169202712
797 3 -2.0 3.7658332820125735 26.0021344022317606 32.0899618232158801
798 3 -2.0 0.9049147852455018 31.6776986827266924 33.7096529879158524
799 3 -2.0 3.2402888188745393 31.6776986827266924 34.2832823169202712
800 3 -2.0 1.4304592483835359 26.0021344022317606 31.5163324942114578
801 1 2.0 2.6820376772291232 33.6465692995590970 0.1019443853897463
802 1 2.0 1.9887103900289516 36.8510044709456750 4.2846966020190349
803 1 2.0 4.3240844236579887 36.8510044709456750 2.2952648790941383
804 1 2.0 0.3466636436000856 33.6465692995590970 2.0913761083146447
805 2 4.0 0.0000000000000000 35.2487868852523860 0.0000000000000000
806 2 4.0 2.3353740336290376 35.2487868852523860 2.1933204937043911
807 2 4.0 0.0000000000000000 32.0443517138658081 0.0000000000000000
808 2 4.0 2.3353740336290376 32.0443517138658081 2.1933204937043911
809 3 -2.0 2.1769877960373920 33.6465692995590970 2.6971674024993644
810 3 -2.0 2.4937602712206828 36.8510044709456750 1.6894735849094176
811 3 -2.0 0.1583862375916453 36.8510044709456750 0.5038469087949736
812 3 -2.0 4.5123618296664292 33.6465692995590970 3.8827940786138089
813 3 -2.0 0.9049147852455018 35.6154399163915016 3.0031660760543750
814 3 -2.0 3.7658332820125735 34.8821338541132704 1.3834749113544080
815 3 -2.0 1.4304592483835359 34.8821338541132704 0.8098455823499836
816 3 -2.0 3.2402888188745393 35.6154399163915016 3.5767954050587982
817 3 -2.0 3.7658332820125735 32.4110047450049237 1.3834749113544080
818 3 -2.0 0.9049147852455018 38.0865690254998555 3.0031660760543750
819 3 -2.0 3.2402888188745393 38.0865690254998555 3.5767954050587982
820 3 -2.0 1.4304592483835359 32.4110047450049237 0.8098455823499836
821 1 2.0 2.6820376772291232 33.6465692995590970 4.4885853727985285
822 1 2.0 1.9887103900289516 36.8510044709456750 8.6713375894278162
823 1 2.0 4.3240844236579887 36.8510044709456750 6.6819058665029205
824 1 2.0 0.3466636436000856 33.6465692995590970 6.4780170957234269
825 2 4.0 0.0000000000000000 35.2487868852523860 4.3866409874087822
826 2 4.0 2.3353740336290376 35.2487868852523860 6.5799614811131732
827 2 4.0 0.0000000000000000 32.0443517138658081 4.3866409874087822
828 2 4.0 2.3353740336290376 32.0443517138658081 6.5799614811131732
829 3 -2.0 2.1769877960373920 33.6465692995590970 7.0838083899081470
830 3 -2.0 2.4937602712206828 36.8510044709456750 6.0761145723181995
831 3 -2.0 0.1583862375916453 36.8510044709456750 4.8904878962037559
832 3 -2.0 4.5123618296664292 33.6465692995590970 8.2694350660225915
833 3 -2.0 0.9049147852455018 35.6154399163915016 7.3898070634631576
834 3 -2.0 3.7658332820125735 34.8821338541132704 5.7701158987631906
835 3 -2.0 1.4304592483835359 34.8821338541132704 5.1964865697587657
836 3 -2.0 3.2402888188745393 35.6154399163915016 7.9634363924675799
837 3 -2.0 3.7658332820125735 32.4110047450049237 5.7701158987631906
838 3 -2.0 0.9049147852455018 38.0865690254998555 7.3898070634631576
839 3 -2.0 3.2402888188745393 38.0865690254998555 7.9634363924675799
840 3 -2.0 1.4304592483835359 32.4110047450049237 5.1964865697587657
841 1 2.0 2.6820376772291232 33.6465692995590970 8.8752263602073107
842 1 2.0 1.9887103900289516 36.8510044709456750 13.0579785768365984
843 1 2.0 4.3240844236579887 36.8510044709456750 11.0685468539117036
844 1 2.0 0.3466636436000856 33.6465692995590970 10.8646580831322090
845 2 4.0 0.0000000000000000 35.2487868852523860 8.7732819748175643
846 2 4.0 2.3353740336290376 35.2487868852523860 10.9666024685219554
847 2 4.0 0.0000000000000000 32.0443517138658081 8.7732819748175643
848 2 4.0 2.3353740336290376 32.0443517138658081 10.9666024685219554
849 3 -2.0 2.1769877960373920 33.6465692995590970 11.4704493773169283
850 3 -2.0 2.4937602712206828 36.8510044709456750 10.4627555597269826
851 3 -2.0 0.1583862375916453 36.8510044709456750 9.2771288836125372
852 3 -2.0 4.5123618296664292 33.6465692995590970 12.6560760534313737
853 3 -2.0 0.9049147852455018 35.6154399163915016 11.7764480508719398
854 3 -2.0 3.7658332820125735 34.8821338541132704 10.1567568861719728
855 3 -2.0 1.4304592483835359 34.8821338541132704 9.5831275571675469
856 3 -2.0 3.2402888188745393 35.6154399163915016 12.3500773798763621
857 3 -2.0 3.7658332820125735 32.4110047450049237 10.1567568861719728
858 3 -2.0 0.9049147852455018 38.0865690254998555 11.7764480508719398
859 3 -2.0 3.2402888188745393 38.0865690254998555 12.3500773798763621
860 3 -2.0 1.4304592483835359 32.4110047450049237 9.5831275571675469
861 1 2.0 2.6820376772291232 33.6465692995590970 13.2618673476160929
862 1 2.0 1.9887103900289516 36.8510044709456750 17.4446195642453823
863 1 2.0 4.3240844236579887 36.8510044709456750 15.4551878413204857
864 1 2.0 0.3466636436000856 33.6465692995590970 15.2512990705409912
865 2 4.0 0.0000000000000000 35.2487868852523860 13.1599229622263465
866 2 4.0 2.3353740336290376 35.2487868852523860 15.3532434559307376
867 2 4.0 0.0000000000000000 32.0443517138658081 13.1599229622263465
868 2 4.0 2.3353740336290376 32.0443517138658081 15.3532434559307376
869 3 -2.0 2.1769877960373920 33.6465692995590970 15.8570903647257104
870 3 -2.0 2.4937602712206828 36.8510044709456750 14.8493965471357647
871 3 -2.0 0.1583862375916453 36.8510044709456750 13.6637698710213193
872 3 -2.0 4.5123618296664292 33.6465692995590970 17.0427170408401558
873 3 -2.0 0.9049147852455018 35.6154399163915016 16.1630890382807237
874 3 -2.0 3.7658332820125735 34.8821338541132704 14.5433978735807550
875 3 -2.0 1.4304592483835359 34.8821338541132704 13.9697685445763291
876 3 -2.0 3.2402888188745393 35.6154399163915016 16.7367183672851425
877 3 -2.0 3.7658332820125735 32.4110047450049237 14.5433978735807550
878 3 -2.0 0.9049147852455018 38.0865690254998555 16.1630890382807237
879 3 -2.0 3.2402888188745393 38.0865690254998555 16.7367183672851425
880 3 -2.0 1.4304592483835359 32.4110047450049237 13.9697685445763291
881 1 2.0 2.6820376772291232 33.6465692995590970 17.6485083350248750
882 1 2.0 1.9887103900289516 36.8510044709456750 21.8312605516541645
883 1 2.0 4.3240844236579887 36.8510044709456750 19.8418288287292661
884 1 2.0 0.3466636436000856 33.6465692995590970 19.6379400579497734
885 2 4.0 0.0000000000000000 35.2487868852523860 17.5465639496351287
886 2 4.0 2.3353740336290376 35.2487868852523860 19.7398844433395197
887 2 4.0 0.0000000000000000 32.0443517138658081 17.5465639496351287
888 2 4.0 2.3353740336290376 32.0443517138658081 19.7398844433395197
889 3 -2.0 2.1769877960373920 33.6465692995590970 20.2437313521344926
890 3 -2.0 2.4937602712206828 36.8510044709456750 19.2360375345445433
891 3 -2.0 0.1583862375916453 36.8510044709456750 18.0504108584301051
892 3 -2.0 4.5123618296664292 33.6465692995590970 21.4293580282489380
893 3 -2.0 0.9049147852455018 35.6154399163915016 20.5497300256895024
894 3 -2.0 3.7658332820125735 34.8821338541132704 18.9300388609895371
895 3 -2.0 1.4304592483835359 34.8821338541132704 18.3564095319851113
896 3 -2.0 3.2402888188745393 35.6154399163915016 21.1233593546939282
897 3 -2.0 3.7658332820125735 32.4110047450049237 18.9300388609895371
898 3 -2.0 0.9049147852455018 38.0865690254998555 20.5497300256895024
899 3 -2.0 3.2402888188745393 38.0865690254998555 21.1233593546939282
900 3 -2.0 1.4304592483835359 32.4110047450049237 18.3564095319851113
901 1 2.0 2.6820376772291232 33.6465692995590970 22.0351493224336572
902 1 2.0 1.9887103900289516 36.8510044709456750 26.2179015390629466
903 1 2.0 4.3240844236579887 36.8510044709456750 24.2284698161380483
904 1 2.0 0.3466636436000856 33.6465692995590970 24.0245810453585555
905 2 4.0 0.0000000000000000 35.2487868852523860 21.9332049370439108
906 2 4.0 2.3353740336290376 35.2487868852523860 24.1265254307483019
907 2 4.0 0.0000000000000000 32.0443517138658081 21.9332049370439108
908 2 4.0 2.3353740336290376 32.0443517138658081 24.1265254307483019
909 3 -2.0 2.1769877960373920 33.6465692995590970 24.6303723395432748
910 3 -2.0 2.4937602712206828 36.8510044709456750 23.6226785219533255
911 3 -2.0 0.1583862375916453 36.8510044709456750 22.4370518458388872
912 3 -2.0 4.5123618296664292 33.6465692995590970 25.8159990156577202
913 3 -2.0 0.9049147852455018 35.6154399163915016 24.9363710130982845
914 3 -2.0 3.7658332820125735 34.8821338541132704 23.3166798483983193
915 3 -2.0 1.4304592483835359 34.8821338541132704 22.7430505193938934
916 3 -2.0 3.2402888188745393 35.6154399163915016 25.5100003421027104
917 3 -2.0 3.7658332820125735 32.4110047450049237 23.3166798483983193
918 3 -2.0 0.9049147852455018 38.0865690254998555 24.9363710130982845
919 3 -2.0 3.2402888188745393 38.0865690254998555 25.5100003421027104
920 3 -2.0 1.4304592483835359 32.4110047450049237 22.7430505193938934
921 1 2.0 2.6820376772291232 33.6465692995590970 26.4217903098424394
922 1 2.0 1.9887103900289516 36.8510044709456750 30.6045425264717288
923 1 2.0 4.3240844236579887 36.8510044709456750 28.6151108035468305
924 1 2.0 0.3466636436000856 33.6465692995590970 28.4112220327673377
925 2 4.0 0.0000000000000000 35.2487868852523860 26.3198459244526930
926 2 4.0 2.3353740336290376 35.2487868852523860 28.5131664181570841
927 2 4.0 0.0000000000000000 32.0443517138658081 26.3198459244526930
928 2 4.0 2.3353740336290376 32.0443517138658081 28.5131664181570841
929 3 -2.0 2.1769877960373920 33.6465692995590970 29.0170133269520569
930 3 -2.0 2.4937602712206828 36.8510044709456750 28.0093195093621077
931 3 -2.0 0.1583862375916453 36.8510044709456750 26.8236928332476694
932 3 -2.0 4.5123618296664292 33.6465692995590970 30.2026400030665023
933 3 -2.0 0.9049147852455018 35.6154399163915016 29.3230120005070667
934 3 -2.0 3.7658332820125735 34.8821338541132704 27.7033208358071015
935 3 -2.0 1.4304592483835359 34.8821338541132704 27.1296915068026756
936 3 -2.0 3.2402888188745393 35.6154399163915016 29.8966413295114926
937 3 -2.0 3.7658332820125735 32.4110047450049237 27.7033208358071015
938 3 -2.0 0.9049147852455018 38.0865690254998555 29.3230120005070667
939 3 -2.0 3.2402888188745393 38.0865690254998555 29.8966413295114926
940 3 -2.0 1.4304592483835359 32.4110047450049237 27.1296915068026756
941 1 2.0 2.6820376772291232 33.6465692995590970 30.8084312972512215
942 1 2.0 1.9887103900289516 36.8510044709456750 34.9911835138805074
943 1 2.0 4.3240844236579887 36.8510044709456750 33.0017517909556162
944 1 2.0 0.3466636436000856 33.6465692995590970 32.7978630201761163
945 2 4.0 0.0000000000000000 35.2487868852523860 30.7064869118614752
946 2 4.0 2.3353740336290376 35.2487868852523860 32.8998074055658662
947 2 4.0 0.0000000000000000 32.0443517138658081 30.7064869118614752
948 2 4.0 2.3353740336290376 32.0443517138658081 32.8998074055658662
949 3 -2.0 2.1769877960373920 33.6465692995590970 33.4036543143608355
950 3 -2.0 2.4937602712206828 36.8510044709456750 32.3959604967708898
951 3 -2.0 0.1583862375916453 36.8510044709456750 31.2103338206564516
952 3 -2.0 4.5123618296664292 33.6465692995590970 34.5892809904752880
953 3 -2.0 0.9049147852455018 35.6154399163915016 33.7096529879158524
954 3 -2.0 3.7658332820125735 34.8821338541132704 32.0899618232158801
955 3 -2.0 1.4304592483835359 34.8821338541132704 31.5163324942114578
956 3 -2.0 3.2402888188745393 35.6154399163915016 34.2832823169202712
957 3 -2.0 3.7658332820125735 32.4110047450049237 32.0899618232158801
958 3 -2.0 0.9049147852455018 38.0865690254998555 33.7096529879158524
959 3 -2.0 3.2402888188745393 38.0865690254998555 34.2832823169202712
960 3 -2.0 1.4304592483835359 32.4110047450049237 31.5163324942114578
961 1 2.0 2.6820376772291232 40.0554396423322601 0.1019443853897463
962 1 2.0 1.9887103900289516 43.2598748137188380 4.2846966020190349
963 1 2.0 4.3240844236579887 43.2598748137188380 2.2952648790941383
964 1 2.0 0.3466636436000856 40.0554396423322601 2.0913761083146447
965 2 4.0 0.0000000000000000 41.6576572280255490 0.0000000000000000
966 2 4.0 2.3353740336290376 41.6576572280255490 2.1933204937043911
967 2 4.0 0.0000000000000000 38.4532220566389640 0.0000000000000000
968 2 4.0 2.3353740336290376 38.4532220566389640 2.1933204937043911
969 3 -2.0 2.1769877960373920 40.0554396423322601 2.6971674024993644
970 3 -2.0 2.4937602712206828 43.2598748137188380 1.6894735849094176
971 3 -2.0 0.1583862375916453 43.2598748137188380 0.5038469087949736
972 3 -2.0 4.5123618296664292 40.0554396423322601 3.8827940786138089
973 3 -2.0 0.9049147852455018 42.0243102591646647 3.0031660760543750
974 3 -2.0 3.7658332820125735 41.2910041968864334 1.3834749113544080
975 3 -2.0 1.4304592483835359 41.2910041968864334 0.8098455823499836
976 3 -2.0 3.2402888188745393 42.0243102591646647 3.5767954050587982
977 3 -2.0 3.7658332820125735 38.8198750877780796 1.3834749113544080
978 3 -2.0 0.9049147852455018 44.4954393682730114 3.0031660760543750
979 3 -2.0 3.2402888188745393 44.4954393682730114 3.5767954050587982
980 3 -2.0 1.4304592483835359 38.8198750877780796 0.8098455823499836
981 1 2.0 2.6820376772291232 40.0554396423322601 4.4885853727985285
982 1 2.0 1.9887103900289516 43.2598748137188380 8.6713375894278162
983 1 2.0 4.3240844236579887 43.2598748137188380 6.6819058665029205
984 1 2.0 0.3466636436000856 40.0554396423322601 6.4780170957234269
985 2 4.0 0.0000000000000000 41.6576572280255490 4.3866409874087822
986 2 4.0 2.3353740336290376 41.6576572280255490 6.5799614811131732
987 2 4.0 0.0000000000000000 38.4532220566389640 4.3866409874087822
988 2 4.0 2.3353740336290376 38.4532220566389640 6.5799614811131732
989 3 -2.0 2.1769877960373920 40.0554396423322601 7.0838083899081470
990 3 -2.0 2.4937602712206828 43.2598748137188380 6.0761145723181995
991 3 -2.0 0.1583862375916453 43.2598748137188380 4.8904878962037559
992 3 -2.0 4.5123618296664292 40.0554396423322601 8.2694350660225915
993 3 -2.0 0.9049147852455018 42.0243102591646647 7.3898070634631576
994 3 -2.0 3.7658332820125735 41.2910041968864334 5.7701158987631906
995 3 -2.0 1.4304592483835359 41.2910041968864334 5.1964865697587657
996 3 -2.0 3.2402888188745393 42.0243102591646647 7.9634363924675799
997 3 -2.0 3.7658332820125735 38.8198750877780796 5.7701158987631906
998 3 -2.0 0.9049147852455018 44.4954393682730114 7.3898070634631576
999 3 -2.0 3.2402888188745393 44.4954393682730114 7.9634363924675799
1000 3 -2.0 1.4304592483835359 38.8198750877780796 5.1964865697587657
1001 1 2.0 2.6820376772291232 40.0554396423322601 8.8752263602073107
1002 1 2.0 1.9887103900289516 43.2598748137188380 13.0579785768365984
1003 1 2.0 4.3240844236579887 43.2598748137188380 11.0685468539117036
1004 1 2.0 0.3466636436000856 40.0554396423322601 10.8646580831322090
1005 2 4.0 0.0000000000000000 41.6576572280255490 8.7732819748175643
1006 2 4.0 2.3353740336290376 41.6576572280255490 10.9666024685219554
1007 2 4.0 0.0000000000000000 38.4532220566389640 8.7732819748175643
1008 2 4.0 2.3353740336290376 38.4532220566389640 10.9666024685219554
1009 3 -2.0 2.1769877960373920 40.0554396423322601 11.4704493773169283
1010 3 -2.0 2.4937602712206828 43.2598748137188380 10.4627555597269826
1011 3 -2.0 0.1583862375916453 43.2598748137188380 9.2771288836125372
1012 3 -2.0 4.5123618296664292 40.0554396423322601 12.6560760534313737
1013 3 -2.0 0.9049147852455018 42.0243102591646647 11.7764480508719398
1014 3 -2.0 3.7658332820125735 41.2910041968864334 10.1567568861719728
1015 3 -2.0 1.4304592483835359 41.2910041968864334 9.5831275571675469
1016 3 -2.0 3.2402888188745393 42.0243102591646647 12.3500773798763621
1017 3 -2.0 3.7658332820125735 38.8198750877780796 10.1567568861719728
1018 3 -2.0 0.9049147852455018 44.4954393682730114 11.7764480508719398
1019 3 -2.0 3.2402888188745393 44.4954393682730114 12.3500773798763621
1020 3 -2.0 1.4304592483835359 38.8198750877780796 9.5831275571675469
1021 1 2.0 2.6820376772291232 40.0554396423322601 13.2618673476160929
1022 1 2.0 1.9887103900289516 43.2598748137188380 17.4446195642453823
1023 1 2.0 4.3240844236579887 43.2598748137188380 15.4551878413204857
1024 1 2.0 0.3466636436000856 40.0554396423322601 15.2512990705409912
1025 2 4.0 0.0000000000000000 41.6576572280255490 13.1599229622263465
1026 2 4.0 2.3353740336290376 41.6576572280255490 15.3532434559307376
1027 2 4.0 0.0000000000000000 38.4532220566389640 13.1599229622263465
1028 2 4.0 2.3353740336290376 38.4532220566389640 15.3532434559307376
1029 3 -2.0 2.1769877960373920 40.0554396423322601 15.8570903647257104
1030 3 -2.0 2.4937602712206828 43.2598748137188380 14.8493965471357647
1031 3 -2.0 0.1583862375916453 43.2598748137188380 13.6637698710213193
1032 3 -2.0 4.5123618296664292 40.0554396423322601 17.0427170408401558
1033 3 -2.0 0.9049147852455018 42.0243102591646647 16.1630890382807237
1034 3 -2.0 3.7658332820125735 41.2910041968864334 14.5433978735807550
1035 3 -2.0 1.4304592483835359 41.2910041968864334 13.9697685445763291
1036 3 -2.0 3.2402888188745393 42.0243102591646647 16.7367183672851425
1037 3 -2.0 3.7658332820125735 38.8198750877780796 14.5433978735807550
1038 3 -2.0 0.9049147852455018 44.4954393682730114 16.1630890382807237
1039 3 -2.0 3.2402888188745393 44.4954393682730114 16.7367183672851425
1040 3 -2.0 1.4304592483835359 38.8198750877780796 13.9697685445763291
1041 1 2.0 2.6820376772291232 40.0554396423322601 17.6485083350248750
1042 1 2.0 1.9887103900289516 43.2598748137188380 21.8312605516541645
1043 1 2.0 4.3240844236579887 43.2598748137188380 19.8418288287292661
1044 1 2.0 0.3466636436000856 40.0554396423322601 19.6379400579497734
1045 2 4.0 0.0000000000000000 41.6576572280255490 17.5465639496351287
1046 2 4.0 2.3353740336290376 41.6576572280255490 19.7398844433395197
1047 2 4.0 0.0000000000000000 38.4532220566389640 17.5465639496351287
1048 2 4.0 2.3353740336290376 38.4532220566389640 19.7398844433395197
1049 3 -2.0 2.1769877960373920 40.0554396423322601 20.2437313521344926
1050 3 -2.0 2.4937602712206828 43.2598748137188380 19.2360375345445433
1051 3 -2.0 0.1583862375916453 43.2598748137188380 18.0504108584301051
1052 3 -2.0 4.5123618296664292 40.0554396423322601 21.4293580282489380
1053 3 -2.0 0.9049147852455018 42.0243102591646647 20.5497300256895024
1054 3 -2.0 3.7658332820125735 41.2910041968864334 18.9300388609895371
1055 3 -2.0 1.4304592483835359 41.2910041968864334 18.3564095319851113
1056 3 -2.0 3.2402888188745393 42.0243102591646647 21.1233593546939282
1057 3 -2.0 3.7658332820125735 38.8198750877780796 18.9300388609895371
1058 3 -2.0 0.9049147852455018 44.4954393682730114 20.5497300256895024
1059 3 -2.0 3.2402888188745393 44.4954393682730114 21.1233593546939282
1060 3 -2.0 1.4304592483835359 38.8198750877780796 18.3564095319851113
1061 1 2.0 2.6820376772291232 40.0554396423322601 22.0351493224336572
1062 1 2.0 1.9887103900289516 43.2598748137188380 26.2179015390629466
1063 1 2.0 4.3240844236579887 43.2598748137188380 24.2284698161380483
1064 1 2.0 0.3466636436000856 40.0554396423322601 24.0245810453585555
1065 2 4.0 0.0000000000000000 41.6576572280255490 21.9332049370439108
1066 2 4.0 2.3353740336290376 41.6576572280255490 24.1265254307483019
1067 2 4.0 0.0000000000000000 38.4532220566389640 21.9332049370439108
1068 2 4.0 2.3353740336290376 38.4532220566389640 24.1265254307483019
1069 3 -2.0 2.1769877960373920 40.0554396423322601 24.6303723395432748
1070 3 -2.0 2.4937602712206828 43.2598748137188380 23.6226785219533255
1071 3 -2.0 0.1583862375916453 43.2598748137188380 22.4370518458388872
1072 3 -2.0 4.5123618296664292 40.0554396423322601 25.8159990156577202
1073 3 -2.0 0.9049147852455018 42.0243102591646647 24.9363710130982845
1074 3 -2.0 3.7658332820125735 41.2910041968864334 23.3166798483983193
1075 3 -2.0 1.4304592483835359 41.2910041968864334 22.7430505193938934
1076 3 -2.0 3.2402888188745393 42.0243102591646647 25.5100003421027104
1077 3 -2.0 3.7658332820125735 38.8198750877780796 23.3166798483983193
1078 3 -2.0 0.9049147852455018 44.4954393682730114 24.9363710130982845
1079 3 -2.0 3.2402888188745393 44.4954393682730114 25.5100003421027104
1080 3 -2.0 1.4304592483835359 38.8198750877780796 22.7430505193938934
1081 1 2.0 2.6820376772291232 40.0554396423322601 26.4217903098424394
1082 1 2.0 1.9887103900289516 43.2598748137188380 30.6045425264717288
1083 1 2.0 4.3240844236579887 43.2598748137188380 28.6151108035468305
1084 1 2.0 0.3466636436000856 40.0554396423322601 28.4112220327673377
1085 2 4.0 0.0000000000000000 41.6576572280255490 26.3198459244526930
1086 2 4.0 2.3353740336290376 41.6576572280255490 28.5131664181570841
1087 2 4.0 0.0000000000000000 38.4532220566389640 26.3198459244526930
1088 2 4.0 2.3353740336290376 38.4532220566389640 28.5131664181570841
1089 3 -2.0 2.1769877960373920 40.0554396423322601 29.0170133269520569
1090 3 -2.0 2.4937602712206828 43.2598748137188380 28.0093195093621077
1091 3 -2.0 0.1583862375916453 43.2598748137188380 26.8236928332476694
1092 3 -2.0 4.5123618296664292 40.0554396423322601 30.2026400030665023
1093 3 -2.0 0.9049147852455018 42.0243102591646647 29.3230120005070667
1094 3 -2.0 3.7658332820125735 41.2910041968864334 27.7033208358071015
1095 3 -2.0 1.4304592483835359 41.2910041968864334 27.1296915068026756
1096 3 -2.0 3.2402888188745393 42.0243102591646647 29.8966413295114926
1097 3 -2.0 3.7658332820125735 38.8198750877780796 27.7033208358071015
1098 3 -2.0 0.9049147852455018 44.4954393682730114 29.3230120005070667
1099 3 -2.0 3.2402888188745393 44.4954393682730114 29.8966413295114926
1100 3 -2.0 1.4304592483835359 38.8198750877780796 27.1296915068026756
1101 1 2.0 2.6820376772291232 40.0554396423322601 30.8084312972512215
1102 1 2.0 1.9887103900289516 43.2598748137188380 34.9911835138805074
1103 1 2.0 4.3240844236579887 43.2598748137188380 33.0017517909556162
1104 1 2.0 0.3466636436000856 40.0554396423322601 32.7978630201761163
1105 2 4.0 0.0000000000000000 41.6576572280255490 30.7064869118614752
1106 2 4.0 2.3353740336290376 41.6576572280255490 32.8998074055658662
1107 2 4.0 0.0000000000000000 38.4532220566389640 30.7064869118614752
1108 2 4.0 2.3353740336290376 38.4532220566389640 32.8998074055658662
1109 3 -2.0 2.1769877960373920 40.0554396423322601 33.4036543143608355
1110 3 -2.0 2.4937602712206828 43.2598748137188380 32.3959604967708898
1111 3 -2.0 0.1583862375916453 43.2598748137188380 31.2103338206564516
1112 3 -2.0 4.5123618296664292 40.0554396423322601 34.5892809904752880
1113 3 -2.0 0.9049147852455018 42.0243102591646647 33.7096529879158524
1114 3 -2.0 3.7658332820125735 41.2910041968864334 32.0899618232158801
1115 3 -2.0 1.4304592483835359 41.2910041968864334 31.5163324942114578
1116 3 -2.0 3.2402888188745393 42.0243102591646647 34.2832823169202712
1117 3 -2.0 3.7658332820125735 38.8198750877780796 32.0899618232158801
1118 3 -2.0 0.9049147852455018 44.4954393682730114 33.7096529879158524
1119 3 -2.0 3.2402888188745393 44.4954393682730114 34.2832823169202712
1120 3 -2.0 1.4304592483835359 38.8198750877780796 31.5163324942114578
1121 1 2.0 2.6820376772291232 46.4643099851054160 0.1019443853897463
1122 1 2.0 1.9887103900289516 49.6687451564920011 4.2846966020190349
1123 1 2.0 4.3240844236579887 49.6687451564920011 2.2952648790941383
1124 1 2.0 0.3466636436000856 46.4643099851054160 2.0913761083146447
1125 2 4.0 0.0000000000000000 48.0665275707987121 0.0000000000000000
1126 2 4.0 2.3353740336290376 48.0665275707987121 2.1933204937043911
1127 2 4.0 0.0000000000000000 44.8620923994121270 0.0000000000000000
1128 2 4.0 2.3353740336290376 44.8620923994121270 2.1933204937043911
1129 3 -2.0 2.1769877960373920 46.4643099851054160 2.6971674024993644
1130 3 -2.0 2.4937602712206828 49.6687451564920011 1.6894735849094176
1131 3 -2.0 0.1583862375916453 49.6687451564920011 0.5038469087949736
1132 3 -2.0 4.5123618296664292 46.4643099851054160 3.8827940786138089
1133 3 -2.0 0.9049147852455018 48.4331806019378206 3.0031660760543750
1134 3 -2.0 3.7658332820125735 47.6998745396595965 1.3834749113544080
1135 3 -2.0 1.4304592483835359 47.6998745396595965 0.8098455823499836
1136 3 -2.0 3.2402888188745393 48.4331806019378206 3.5767954050587982
1137 3 -2.0 3.7658332820125735 45.2287454305512426 1.3834749113544080
1138 3 -2.0 0.9049147852455018 50.9043097110461744 3.0031660760543750
1139 3 -2.0 3.2402888188745393 50.9043097110461744 3.5767954050587982
1140 3 -2.0 1.4304592483835359 45.2287454305512426 0.8098455823499836
1141 1 2.0 2.6820376772291232 46.4643099851054160 4.4885853727985285
1142 1 2.0 1.9887103900289516 49.6687451564920011 8.6713375894278162
1143 1 2.0 4.3240844236579887 49.6687451564920011 6.6819058665029205
1144 1 2.0 0.3466636436000856 46.4643099851054160 6.4780170957234269
1145 2 4.0 0.0000000000000000 48.0665275707987121 4.3866409874087822
1146 2 4.0 2.3353740336290376 48.0665275707987121 6.5799614811131732
1147 2 4.0 0.0000000000000000 44.8620923994121270 4.3866409874087822
1148 2 4.0 2.3353740336290376 44.8620923994121270 6.5799614811131732
1149 3 -2.0 2.1769877960373920 46.4643099851054160 7.0838083899081470
1150 3 -2.0 2.4937602712206828 49.6687451564920011 6.0761145723181995
1151 3 -2.0 0.1583862375916453 49.6687451564920011 4.8904878962037559
1152 3 -2.0 4.5123618296664292 46.4643099851054160 8.2694350660225915
1153 3 -2.0 0.9049147852455018 48.4331806019378206 7.3898070634631576
1154 3 -2.0 3.7658332820125735 47.6998745396595965 5.7701158987631906
1155 3 -2.0 1.4304592483835359 47.6998745396595965 5.1964865697587657
1156 3 -2.0 3.2402888188745393 48.4331806019378206 7.9634363924675799
1157 3 -2.0 3.7658332820125735 45.2287454305512426 5.7701158987631906
1158 3 -2.0 0.9049147852455018 50.9043097110461744 7.3898070634631576
1159 3 -2.0 3.2402888188745393 50.9043097110461744 7.9634363924675799
1160 3 -2.0 1.4304592483835359 45.2287454305512426 5.1964865697587657
1161 1 2.0 2.6820376772291232 46.4643099851054160 8.8752263602073107
1162 1 2.0 1.9887103900289516 49.6687451564920011 13.0579785768365984
1163 1 2.0 4.3240844236579887 49.6687451564920011 11.0685468539117036
1164 1 2.0 0.3466636436000856 46.4643099851054160 10.8646580831322090
1165 2 4.0 0.0000000000000000 48.0665275707987121 8.7732819748175643
1166 2 4.0 2.3353740336290376 48.0665275707987121 10.9666024685219554
1167 2 4.0 0.0000000000000000 44.8620923994121270 8.7732819748175643
1168 2 4.0 2.3353740336290376 44.8620923994121270 10.9666024685219554
1169 3 -2.0 2.1769877960373920 46.4643099851054160 11.4704493773169283
1170 3 -2.0 2.4937602712206828 49.6687451564920011 10.4627555597269826
1171 3 -2.0 0.1583862375916453 49.6687451564920011 9.2771288836125372
1172 3 -2.0 4.5123618296664292 46.4643099851054160 12.6560760534313737
1173 3 -2.0 0.9049147852455018 48.4331806019378206 11.7764480508719398
1174 3 -2.0 3.7658332820125735 47.6998745396595965 10.1567568861719728
1175 3 -2.0 1.4304592483835359 47.6998745396595965 9.5831275571675469
1176 3 -2.0 3.2402888188745393 48.4331806019378206 12.3500773798763621
1177 3 -2.0 3.7658332820125735 45.2287454305512426 10.1567568861719728
1178 3 -2.0 0.9049147852455018 50.9043097110461744 11.7764480508719398
1179 3 -2.0 3.2402888188745393 50.9043097110461744 12.3500773798763621
1180 3 -2.0 1.4304592483835359 45.2287454305512426 9.5831275571675469
1181 1 2.0 2.6820376772291232 46.4643099851054160 13.2618673476160929
1182 1 2.0 1.9887103900289516 49.6687451564920011 17.4446195642453823
1183 1 2.0 4.3240844236579887 49.6687451564920011 15.4551878413204857
1184 1 2.0 0.3466636436000856 46.4643099851054160 15.2512990705409912
1185 2 4.0 0.0000000000000000 48.0665275707987121 13.1599229622263465
1186 2 4.0 2.3353740336290376 48.0665275707987121 15.3532434559307376
1187 2 4.0 0.0000000000000000 44.8620923994121270 13.1599229622263465
1188 2 4.0 2.3353740336290376 44.8620923994121270 15.3532434559307376
1189 3 -2.0 2.1769877960373920 46.4643099851054160 15.8570903647257104
1190 3 -2.0 2.4937602712206828 49.6687451564920011 14.8493965471357647
1191 3 -2.0 0.1583862375916453 49.6687451564920011 13.6637698710213193
1192 3 -2.0 4.5123618296664292 46.4643099851054160 17.0427170408401558
1193 3 -2.0 0.9049147852455018 48.4331806019378206 16.1630890382807237
1194 3 -2.0 3.7658332820125735 47.6998745396595965 14.5433978735807550
1195 3 -2.0 1.4304592483835359 47.6998745396595965 13.9697685445763291
1196 3 -2.0 3.2402888188745393 48.4331806019378206 16.7367183672851425
1197 3 -2.0 3.7658332820125735 45.2287454305512426 14.5433978735807550
1198 3 -2.0 0.9049147852455018 50.9043097110461744 16.1630890382807237
1199 3 -2.0 3.2402888188745393 50.9043097110461744 16.7367183672851425
1200 3 -2.0 1.4304592483835359 45.2287454305512426 13.9697685445763291
1201 1 2.0 2.6820376772291232 46.4643099851054160 17.6485083350248750
1202 1 2.0 1.9887103900289516 49.6687451564920011 21.8312605516541645
1203 1 2.0 4.3240844236579887 49.6687451564920011 19.8418288287292661
1204 1 2.0 0.3466636436000856 46.4643099851054160 19.6379400579497734
1205 2 4.0 0.0000000000000000 48.0665275707987121 17.5465639496351287
1206 2 4.0 2.3353740336290376 48.0665275707987121 19.7398844433395197
1207 2 4.0 0.0000000000000000 44.8620923994121270 17.5465639496351287
1208 2 4.0 2.3353740336290376 44.8620923994121270 19.7398844433395197
1209 3 -2.0 2.1769877960373920 46.4643099851054160 20.2437313521344926
1210 3 -2.0 2.4937602712206828 49.6687451564920011 19.2360375345445433
1211 3 -2.0 0.1583862375916453 49.6687451564920011 18.0504108584301051
1212 3 -2.0 4.5123618296664292 46.4643099851054160 21.4293580282489380
1213 3 -2.0 0.9049147852455018 48.4331806019378206 20.5497300256895024
1214 3 -2.0 3.7658332820125735 47.6998745396595965 18.9300388609895371
1215 3 -2.0 1.4304592483835359 47.6998745396595965 18.3564095319851113
1216 3 -2.0 3.2402888188745393 48.4331806019378206 21.1233593546939282
1217 3 -2.0 3.7658332820125735 45.2287454305512426 18.9300388609895371
1218 3 -2.0 0.9049147852455018 50.9043097110461744 20.5497300256895024
1219 3 -2.0 3.2402888188745393 50.9043097110461744 21.1233593546939282
1220 3 -2.0 1.4304592483835359 45.2287454305512426 18.3564095319851113
1221 1 2.0 2.6820376772291232 46.4643099851054160 22.0351493224336572
1222 1 2.0 1.9887103900289516 49.6687451564920011 26.2179015390629466
1223 1 2.0 4.3240844236579887 49.6687451564920011 24.2284698161380483
1224 1 2.0 0.3466636436000856 46.4643099851054160 24.0245810453585555
1225 2 4.0 0.0000000000000000 48.0665275707987121 21.9332049370439108
1226 2 4.0 2.3353740336290376 48.0665275707987121 24.1265254307483019
1227 2 4.0 0.0000000000000000 44.8620923994121270 21.9332049370439108
1228 2 4.0 2.3353740336290376 44.8620923994121270 24.1265254307483019
1229 3 -2.0 2.1769877960373920 46.4643099851054160 24.6303723395432748
1230 3 -2.0 2.4937602712206828 49.6687451564920011 23.6226785219533255
1231 3 -2.0 0.1583862375916453 49.6687451564920011 22.4370518458388872
1232 3 -2.0 4.5123618296664292 46.4643099851054160 25.8159990156577202
1233 3 -2.0 0.9049147852455018 48.4331806019378206 24.9363710130982845
1234 3 -2.0 3.7658332820125735 47.6998745396595965 23.3166798483983193
1235 3 -2.0 1.4304592483835359 47.6998745396595965 22.7430505193938934
1236 3 -2.0 3.2402888188745393 48.4331806019378206 25.5100003421027104
1237 3 -2.0 3.7658332820125735 45.2287454305512426 23.3166798483983193
1238 3 -2.0 0.9049147852455018 50.9043097110461744 24.9363710130982845
1239 3 -2.0 3.2402888188745393 50.9043097110461744 25.5100003421027104
1240 3 -2.0 1.4304592483835359 45.2287454305512426 22.7430505193938934
1241 1 2.0 2.6820376772291232 46.4643099851054160 26.4217903098424394
1242 1 2.0 1.9887103900289516 49.6687451564920011 30.6045425264717288
1243 1 2.0 4.3240844236579887 49.6687451564920011 28.6151108035468305
1244 1 2.0 0.3466636436000856 46.4643099851054160 28.4112220327673377
1245 2 4.0 0.0000000000000000 48.0665275707987121 26.3198459244526930
1246 2 4.0 2.3353740336290376 48.0665275707987121 28.5131664181570841
1247 2 4.0 0.0000000000000000 44.8620923994121270 26.3198459244526930
1248 2 4.0 2.3353740336290376 44.8620923994121270 28.5131664181570841
1249 3 -2.0 2.1769877960373920 46.4643099851054160 29.0170133269520569
1250 3 -2.0 2.4937602712206828 49.6687451564920011 28.0093195093621077
1251 3 -2.0 0.1583862375916453 49.6687451564920011 26.8236928332476694
1252 3 -2.0 4.5123618296664292 46.4643099851054160 30.2026400030665023
1253 3 -2.0 0.9049147852455018 48.4331806019378206 29.3230120005070667
1254 3 -2.0 3.7658332820125735 47.6998745396595965 27.7033208358071015
1255 3 -2.0 1.4304592483835359 47.6998745396595965 27.1296915068026756
1256 3 -2.0 3.2402888188745393 48.4331806019378206 29.8966413295114926
1257 3 -2.0 3.7658332820125735 45.2287454305512426 27.7033208358071015
1258 3 -2.0 0.9049147852455018 50.9043097110461744 29.3230120005070667
1259 3 -2.0 3.2402888188745393 50.9043097110461744 29.8966413295114926
1260 3 -2.0 1.4304592483835359 45.2287454305512426 27.1296915068026756
1261 1 2.0 2.6820376772291232 46.4643099851054160 30.8084312972512215
1262 1 2.0 1.9887103900289516 49.6687451564920011 34.9911835138805074
1263 1 2.0 4.3240844236579887 49.6687451564920011 33.0017517909556162
1264 1 2.0 0.3466636436000856 46.4643099851054160 32.7978630201761163
1265 2 4.0 0.0000000000000000 48.0665275707987121 30.7064869118614752
1266 2 4.0 2.3353740336290376 48.0665275707987121 32.8998074055658662
1267 2 4.0 0.0000000000000000 44.8620923994121270 30.7064869118614752
1268 2 4.0 2.3353740336290376 44.8620923994121270 32.8998074055658662
1269 3 -2.0 2.1769877960373920 46.4643099851054160 33.4036543143608355
1270 3 -2.0 2.4937602712206828 49.6687451564920011 32.3959604967708898
1271 3 -2.0 0.1583862375916453 49.6687451564920011 31.2103338206564516
1272 3 -2.0 4.5123618296664292 46.4643099851054160 34.5892809904752880
1273 3 -2.0 0.9049147852455018 48.4331806019378206 33.7096529879158524
1274 3 -2.0 3.7658332820125735 47.6998745396595965 32.0899618232158801
1275 3 -2.0 1.4304592483835359 47.6998745396595965 31.5163324942114578
1276 3 -2.0 3.2402888188745393 48.4331806019378206 34.2832823169202712
1277 3 -2.0 3.7658332820125735 45.2287454305512426 32.0899618232158801
1278 3 -2.0 0.9049147852455018 50.9043097110461744 33.7096529879158524
1279 3 -2.0 3.2402888188745393 50.9043097110461744 34.2832823169202712
1280 3 -2.0 1.4304592483835359 45.2287454305512426 31.5163324942114578
1281 1 2.0 7.3527857444871980 1.6022175856932903 0.1019443853897463
1282 1 2.0 6.6594584572870268 4.8066527570798705 4.2846966020190349
1283 1 2.0 8.9948324909160640 4.8066527570798705 2.2952648790941383
1284 1 2.0 5.0174117108581608 1.6022175856932903 2.0913761083146447
1285 2 4.0 4.6707480672580752 3.2044351713865806 0.0000000000000000
1286 2 4.0 7.0061221008871133 3.2044351713865806 2.1933204937043911
1287 2 4.0 4.6707480672580752 0.0000000000000000 0.0000000000000000
1288 2 4.0 7.0061221008871133 0.0000000000000000 2.1933204937043911
1289 3 -2.0 6.8477358632954681 1.6022175856932903 2.6971674024993644
1290 3 -2.0 7.1645083384787576 4.8066527570798705 1.6894735849094176
1291 3 -2.0 4.8291343048497204 4.8066527570798705 0.5038469087949736
1292 3 -2.0 9.1831098969245044 1.6022175856932903 3.8827940786138089
1293 3 -2.0 5.5756628525035774 3.5710882025256927 3.0031660760543750
1294 3 -2.0 8.4365813492706501 2.8377821402474677 1.3834749113544080
1295 3 -2.0 6.1012073156416120 2.8377821402474677 0.8098455823499836
1296 3 -2.0 7.9110368861326137 3.5710882025256927 3.5767954050587982
1297 3 -2.0 8.4365813492706501 0.3666530311391118 1.3834749113544080
1298 3 -2.0 5.5756628525035774 6.0422173116340492 3.0031660760543750
1299 3 -2.0 7.9110368861326137 6.0422173116340492 3.5767954050587982
1300 3 -2.0 6.1012073156416120 0.3666530311391118 0.8098455823499836
1301 1 2.0 7.3527857444871980 1.6022175856932903 4.4885853727985285
1302 1 2.0 6.6594584572870268 4.8066527570798705 8.6713375894278162
1303 1 2.0 8.9948324909160640 4.8066527570798705 6.6819058665029205
1304 1 2.0 5.0174117108581608 1.6022175856932903 6.4780170957234269
1305 2 4.0 4.6707480672580752 3.2044351713865806 4.3866409874087822
1306 2 4.0 7.0061221008871133 3.2044351713865806 6.5799614811131732
1307 2 4.0 4.6707480672580752 0.0000000000000000 4.3866409874087822
1308 2 4.0 7.0061221008871133 0.0000000000000000 6.5799614811131732
1309 3 -2.0 6.8477358632954681 1.6022175856932903 7.0838083899081470
1310 3 -2.0 7.1645083384787576 4.8066527570798705 6.0761145723181995
1311 3 -2.0 4.8291343048497204 4.8066527570798705 4.8904878962037559
1312 3 -2.0 9.1831098969245044 1.6022175856932903 8.2694350660225915
1313 3 -2.0 5.5756628525035774 3.5710882025256927 7.3898070634631576
1314 3 -2.0 8.4365813492706501 2.8377821402474677 5.7701158987631906
1315 3 -2.0 6.1012073156416120 2.8377821402474677 5.1964865697587657
1316 3 -2.0 7.9110368861326137 3.5710882025256927 7.9634363924675799
1317 3 -2.0 8.4365813492706501 0.3666530311391118 5.7701158987631906
1318 3 -2.0 5.5756628525035774 6.0422173116340492 7.3898070634631576
1319 3 -2.0 7.9110368861326137 6.0422173116340492 7.9634363924675799
1320 3 -2.0 6.1012073156416120 0.3666530311391118 5.1964865697587657
1321 1 2.0 7.3527857444871980 1.6022175856932903 8.8752263602073107
1322 1 2.0 6.6594584572870268 4.8066527570798705 13.0579785768365984
1323 1 2.0 8.9948324909160640 4.8066527570798705 11.0685468539117036
1324 1 2.0 5.0174117108581608 1.6022175856932903 10.8646580831322090
1325 2 4.0 4.6707480672580752 3.2044351713865806 8.7732819748175643
1326 2 4.0 7.0061221008871133 3.2044351713865806 10.9666024685219554
1327 2 4.0 4.6707480672580752 0.0000000000000000 8.7732819748175643
1328 2 4.0 7.0061221008871133 0.0000000000000000 10.9666024685219554
1329 3 -2.0 6.8477358632954681 1.6022175856932903 11.4704493773169283
1330 3 -2.0 7.1645083384787576 4.8066527570798705 10.4627555597269826
1331 3 -2.0 4.8291343048497204 4.8066527570798705 9.2771288836125372
1332 3 -2.0 9.1831098969245044 1.6022175856932903 12.6560760534313737
1333 3 -2.0 5.5756628525035774 3.5710882025256927 11.7764480508719398
1334 3 -2.0 8.4365813492706501 2.8377821402474677 10.1567568861719728
1335 3 -2.0 6.1012073156416120 2.8377821402474677 9.5831275571675469
1336 3 -2.0 7.9110368861326137 3.5710882025256927 12.3500773798763621
1337 3 -2.0 8.4365813492706501 0.3666530311391118 10.1567568861719728
1338 3 -2.0 5.5756628525035774 6.0422173116340492 11.7764480508719398
1339 3 -2.0 7.9110368861326137 6.0422173116340492 12.3500773798763621
1340 3 -2.0 6.1012073156416120 0.3666530311391118 9.5831275571675469
1341 1 2.0 7.3527857444871980 1.6022175856932903 13.2618673476160929
1342 1 2.0 6.6594584572870268 4.8066527570798705 17.4446195642453823
1343 1 2.0 8.9948324909160640 4.8066527570798705 15.4551878413204857
1344 1 2.0 5.0174117108581608 1.6022175856932903 15.2512990705409912
1345 2 4.0 4.6707480672580752 3.2044351713865806 13.1599229622263465
1346 2 4.0 7.0061221008871133 3.2044351713865806 15.3532434559307376
1347 2 4.0 4.6707480672580752 0.0000000000000000 13.1599229622263465
1348 2 4.0 7.0061221008871133 0.0000000000000000 15.3532434559307376
1349 3 -2.0 6.8477358632954681 1.6022175856932903 15.8570903647257104
1350 3 -2.0 7.1645083384787576 4.8066527570798705 14.8493965471357647
1351 3 -2.0 4.8291343048497204 4.8066527570798705 13.6637698710213193
1352 3 -2.0 9.1831098969245044 1.6022175856932903 17.0427170408401558
1353 3 -2.0 5.5756628525035774 3.5710882025256927 16.1630890382807237
1354 3 -2.0 8.4365813492706501 2.8377821402474677 14.5433978735807550
1355 3 -2.0 6.1012073156416120 2.8377821402474677 13.9697685445763291
1356 3 -2.0 7.9110368861326137 3.5710882025256927 16.7367183672851425
1357 3 -2.0 8.4365813492706501 0.3666530311391118 14.5433978735807550
1358 3 -2.0 5.5756628525035774 6.0422173116340492 16.1630890382807237
1359 3 -2.0 7.9110368861326137 6.0422173116340492 16.7367183672851425
1360 3 -2.0 6.1012073156416120 0.3666530311391118 13.9697685445763291
1361 1 2.0 7.3527857444871980 1.6022175856932903 17.6485083350248750
1362 1 2.0 6.6594584572870268 4.8066527570798705 21.8312605516541645
1363 1 2.0 8.9948324909160640 4.8066527570798705 19.8418288287292661
1364 1 2.0 5.0174117108581608 1.6022175856932903 19.6379400579497734
1365 2 4.0 4.6707480672580752 3.2044351713865806 17.5465639496351287
1366 2 4.0 7.0061221008871133 3.2044351713865806 19.7398844433395197
1367 2 4.0 4.6707480672580752 0.0000000000000000 17.5465639496351287
1368 2 4.0 7.0061221008871133 0.0000000000000000 19.7398844433395197
1369 3 -2.0 6.8477358632954681 1.6022175856932903 20.2437313521344926
1370 3 -2.0 7.1645083384787576 4.8066527570798705 19.2360375345445433
1371 3 -2.0 4.8291343048497204 4.8066527570798705 18.0504108584301051
1372 3 -2.0 9.1831098969245044 1.6022175856932903 21.4293580282489380
1373 3 -2.0 5.5756628525035774 3.5710882025256927 20.5497300256895024
1374 3 -2.0 8.4365813492706501 2.8377821402474677 18.9300388609895371
1375 3 -2.0 6.1012073156416120 2.8377821402474677 18.3564095319851113
1376 3 -2.0 7.9110368861326137 3.5710882025256927 21.1233593546939282
1377 3 -2.0 8.4365813492706501 0.3666530311391118 18.9300388609895371
1378 3 -2.0 5.5756628525035774 6.0422173116340492 20.5497300256895024
1379 3 -2.0 7.9110368861326137 6.0422173116340492 21.1233593546939282
1380 3 -2.0 6.1012073156416120 0.3666530311391118 18.3564095319851113
1381 1 2.0 7.3527857444871980 1.6022175856932903 22.0351493224336572
1382 1 2.0 6.6594584572870268 4.8066527570798705 26.2179015390629466
1383 1 2.0 8.9948324909160640 4.8066527570798705 24.2284698161380483
1384 1 2.0 5.0174117108581608 1.6022175856932903 24.0245810453585555
1385 2 4.0 4.6707480672580752 3.2044351713865806 21.9332049370439108
1386 2 4.0 7.0061221008871133 3.2044351713865806 24.1265254307483019
1387 2 4.0 4.6707480672580752 0.0000000000000000 21.9332049370439108
1388 2 4.0 7.0061221008871133 0.0000000000000000 24.1265254307483019
1389 3 -2.0 6.8477358632954681 1.6022175856932903 24.6303723395432748
1390 3 -2.0 7.1645083384787576 4.8066527570798705 23.6226785219533255
1391 3 -2.0 4.8291343048497204 4.8066527570798705 22.4370518458388872
1392 3 -2.0 9.1831098969245044 1.6022175856932903 25.8159990156577202
1393 3 -2.0 5.5756628525035774 3.5710882025256927 24.9363710130982845
1394 3 -2.0 8.4365813492706501 2.8377821402474677 23.3166798483983193
1395 3 -2.0 6.1012073156416120 2.8377821402474677 22.7430505193938934
1396 3 -2.0 7.9110368861326137 3.5710882025256927 25.5100003421027104
1397 3 -2.0 8.4365813492706501 0.3666530311391118 23.3166798483983193
1398 3 -2.0 5.5756628525035774 6.0422173116340492 24.9363710130982845
1399 3 -2.0 7.9110368861326137 6.0422173116340492 25.5100003421027104
1400 3 -2.0 6.1012073156416120 0.3666530311391118 22.7430505193938934
1401 1 2.0 7.3527857444871980 1.6022175856932903 26.4217903098424394
1402 1 2.0 6.6594584572870268 4.8066527570798705 30.6045425264717288
1403 1 2.0 8.9948324909160640 4.8066527570798705 28.6151108035468305
1404 1 2.0 5.0174117108581608 1.6022175856932903 28.4112220327673377
1405 2 4.0 4.6707480672580752 3.2044351713865806 26.3198459244526930
1406 2 4.0 7.0061221008871133 3.2044351713865806 28.5131664181570841
1407 2 4.0 4.6707480672580752 0.0000000000000000 26.3198459244526930
1408 2 4.0 7.0061221008871133 0.0000000000000000 28.5131664181570841
1409 3 -2.0 6.8477358632954681 1.6022175856932903 29.0170133269520569
1410 3 -2.0 7.1645083384787576 4.8066527570798705 28.0093195093621077
1411 3 -2.0 4.8291343048497204 4.8066527570798705 26.8236928332476694
1412 3 -2.0 9.1831098969245044 1.6022175856932903 30.2026400030665023
1413 3 -2.0 5.5756628525035774 3.5710882025256927 29.3230120005070667
1414 3 -2.0 8.4365813492706501 2.8377821402474677 27.7033208358071015
1415 3 -2.0 6.1012073156416120 2.8377821402474677 27.1296915068026756
1416 3 -2.0 7.9110368861326137 3.5710882025256927 29.8966413295114926
1417 3 -2.0 8.4365813492706501 0.3666530311391118 27.7033208358071015
1418 3 -2.0 5.5756628525035774 6.0422173116340492 29.3230120005070667
1419 3 -2.0 7.9110368861326137 6.0422173116340492 29.8966413295114926
1420 3 -2.0 6.1012073156416120 0.3666530311391118 27.1296915068026756
1421 1 2.0 7.3527857444871980 1.6022175856932903 30.8084312972512215
1422 1 2.0 6.6594584572870268 4.8066527570798705 34.9911835138805074
1423 1 2.0 8.9948324909160640 4.8066527570798705 33.0017517909556162
1424 1 2.0 5.0174117108581608 1.6022175856932903 32.7978630201761163
1425 2 4.0 4.6707480672580752 3.2044351713865806 30.7064869118614752
1426 2 4.0 7.0061221008871133 3.2044351713865806 32.8998074055658662
1427 2 4.0 4.6707480672580752 0.0000000000000000 30.7064869118614752
1428 2 4.0 7.0061221008871133 0.0000000000000000 32.8998074055658662
1429 3 -2.0 6.8477358632954681 1.6022175856932903 33.4036543143608355
1430 3 -2.0 7.1645083384787576 4.8066527570798705 32.3959604967708898
1431 3 -2.0 4.8291343048497204 4.8066527570798705 31.2103338206564516
1432 3 -2.0 9.1831098969245044 1.6022175856932903 34.5892809904752880
1433 3 -2.0 5.5756628525035774 3.5710882025256927 33.7096529879158524
1434 3 -2.0 8.4365813492706501 2.8377821402474677 32.0899618232158801
1435 3 -2.0 6.1012073156416120 2.8377821402474677 31.5163324942114578
1436 3 -2.0 7.9110368861326137 3.5710882025256927 34.2832823169202712
1437 3 -2.0 8.4365813492706501 0.3666530311391118 32.0899618232158801
1438 3 -2.0 5.5756628525035774 6.0422173116340492 33.7096529879158524
1439 3 -2.0 7.9110368861326137 6.0422173116340492 34.2832823169202712
1440 3 -2.0 6.1012073156416120 0.3666530311391118 31.5163324942114578
1441 1 2.0 7.3527857444871980 8.0110879284664520 0.1019443853897463
1442 1 2.0 6.6594584572870268 11.2155230998530318 4.2846966020190349
1443 1 2.0 8.9948324909160640 11.2155230998530318 2.2952648790941383
1444 1 2.0 5.0174117108581608 8.0110879284664520 2.0913761083146447
1445 2 4.0 4.6707480672580752 9.6133055141597410 0.0000000000000000
1446 2 4.0 7.0061221008871133 9.6133055141597410 2.1933204937043911
1447 2 4.0 4.6707480672580752 6.4088703427731613 0.0000000000000000
1448 2 4.0 7.0061221008871133 6.4088703427731613 2.1933204937043911
1449 3 -2.0 6.8477358632954681 8.0110879284664520 2.6971674024993644
1450 3 -2.0 7.1645083384787576 11.2155230998530318 1.6894735849094176
1451 3 -2.0 4.8291343048497204 11.2155230998530318 0.5038469087949736
1452 3 -2.0 9.1831098969245044 8.0110879284664520 3.8827940786138089
1453 3 -2.0 5.5756628525035774 9.9799585452988531 3.0031660760543750
1454 3 -2.0 8.4365813492706501 9.2466524830206289 1.3834749113544080
1455 3 -2.0 6.1012073156416120 9.2466524830206289 0.8098455823499836
1456 3 -2.0 7.9110368861326137 9.9799585452988531 3.5767954050587982
1457 3 -2.0 8.4365813492706501 6.7755233739122724 1.3834749113544080
1458 3 -2.0 5.5756628525035774 12.4510876544072104 3.0031660760543750
1459 3 -2.0 7.9110368861326137 12.4510876544072104 3.5767954050587982
1460 3 -2.0 6.1012073156416120 6.7755233739122724 0.8098455823499836
1461 1 2.0 7.3527857444871980 8.0110879284664520 4.4885853727985285
1462 1 2.0 6.6594584572870268 11.2155230998530318 8.6713375894278162
1463 1 2.0 8.9948324909160640 11.2155230998530318 6.6819058665029205
1464 1 2.0 5.0174117108581608 8.0110879284664520 6.4780170957234269
1465 2 4.0 4.6707480672580752 9.6133055141597410 4.3866409874087822
1466 2 4.0 7.0061221008871133 9.6133055141597410 6.5799614811131732
1467 2 4.0 4.6707480672580752 6.4088703427731613 4.3866409874087822
1468 2 4.0 7.0061221008871133 6.4088703427731613 6.5799614811131732
1469 3 -2.0 6.8477358632954681 8.0110879284664520 7.0838083899081470
1470 3 -2.0 7.1645083384787576 11.2155230998530318 6.0761145723181995
1471 3 -2.0 4.8291343048497204 11.2155230998530318 4.8904878962037559
1472 3 -2.0 9.1831098969245044 8.0110879284664520 8.2694350660225915
1473 3 -2.0 5.5756628525035774 9.9799585452988531 7.3898070634631576
1474 3 -2.0 8.4365813492706501 9.2466524830206289 5.7701158987631906
1475 3 -2.0 6.1012073156416120 9.2466524830206289 5.1964865697587657
1476 3 -2.0 7.9110368861326137 9.9799585452988531 7.9634363924675799
1477 3 -2.0 8.4365813492706501 6.7755233739122724 5.7701158987631906
1478 3 -2.0 5.5756628525035774 12.4510876544072104 7.3898070634631576
1479 3 -2.0 7.9110368861326137 12.4510876544072104 7.9634363924675799
1480 3 -2.0 6.1012073156416120 6.7755233739122724 5.1964865697587657
1481 1 2.0 7.3527857444871980 8.0110879284664520 8.8752263602073107
1482 1 2.0 6.6594584572870268 11.2155230998530318 13.0579785768365984
1483 1 2.0 8.9948324909160640 11.2155230998530318 11.0685468539117036
1484 1 2.0 5.0174117108581608 8.0110879284664520 10.8646580831322090
1485 2 4.0 4.6707480672580752 9.6133055141597410 8.7732819748175643
1486 2 4.0 7.0061221008871133 9.6133055141597410 10.9666024685219554
1487 2 4.0 4.6707480672580752 6.4088703427731613 8.7732819748175643
1488 2 4.0 7.0061221008871133 6.4088703427731613 10.9666024685219554
1489 3 -2.0 6.8477358632954681 8.0110879284664520 11.4704493773169283
1490 3 -2.0 7.1645083384787576 11.2155230998530318 10.4627555597269826
1491 3 -2.0 4.8291343048497204 11.2155230998530318 9.2771288836125372
1492 3 -2.0 9.1831098969245044 8.0110879284664520 12.6560760534313737
1493 3 -2.0 5.5756628525035774 9.9799585452988531 11.7764480508719398
1494 3 -2.0 8.4365813492706501 9.2466524830206289 10.1567568861719728
1495 3 -2.0 6.1012073156416120 9.2466524830206289 9.5831275571675469
1496 3 -2.0 7.9110368861326137 9.9799585452988531 12.3500773798763621
1497 3 -2.0 8.4365813492706501 6.7755233739122724 10.1567568861719728
1498 3 -2.0 5.5756628525035774 12.4510876544072104 11.7764480508719398
1499 3 -2.0 7.9110368861326137 12.4510876544072104 12.3500773798763621
1500 3 -2.0 6.1012073156416120 6.7755233739122724 9.5831275571675469
1501 1 2.0 7.3527857444871980 8.0110879284664520 13.2618673476160929
1502 1 2.0 6.6594584572870268 11.2155230998530318 17.4446195642453823
1503 1 2.0 8.9948324909160640 11.2155230998530318 15.4551878413204857
1504 1 2.0 5.0174117108581608 8.0110879284664520 15.2512990705409912
1505 2 4.0 4.6707480672580752 9.6133055141597410 13.1599229622263465
1506 2 4.0 7.0061221008871133 9.6133055141597410 15.3532434559307376
1507 2 4.0 4.6707480672580752 6.4088703427731613 13.1599229622263465
1508 2 4.0 7.0061221008871133 6.4088703427731613 15.3532434559307376
1509 3 -2.0 6.8477358632954681 8.0110879284664520 15.8570903647257104
1510 3 -2.0 7.1645083384787576 11.2155230998530318 14.8493965471357647
1511 3 -2.0 4.8291343048497204 11.2155230998530318 13.6637698710213193
1512 3 -2.0 9.1831098969245044 8.0110879284664520 17.0427170408401558
1513 3 -2.0 5.5756628525035774 9.9799585452988531 16.1630890382807237
1514 3 -2.0 8.4365813492706501 9.2466524830206289 14.5433978735807550
1515 3 -2.0 6.1012073156416120 9.2466524830206289 13.9697685445763291
1516 3 -2.0 7.9110368861326137 9.9799585452988531 16.7367183672851425
1517 3 -2.0 8.4365813492706501 6.7755233739122724 14.5433978735807550
1518 3 -2.0 5.5756628525035774 12.4510876544072104 16.1630890382807237
1519 3 -2.0 7.9110368861326137 12.4510876544072104 16.7367183672851425
1520 3 -2.0 6.1012073156416120 6.7755233739122724 13.9697685445763291
1521 1 2.0 7.3527857444871980 8.0110879284664520 17.6485083350248750
1522 1 2.0 6.6594584572870268 11.2155230998530318 21.8312605516541645
1523 1 2.0 8.9948324909160640 11.2155230998530318 19.8418288287292661
1524 1 2.0 5.0174117108581608 8.0110879284664520 19.6379400579497734
1525 2 4.0 4.6707480672580752 9.6133055141597410 17.5465639496351287
1526 2 4.0 7.0061221008871133 9.6133055141597410 19.7398844433395197
1527 2 4.0 4.6707480672580752 6.4088703427731613 17.5465639496351287
1528 2 4.0 7.0061221008871133 6.4088703427731613 19.7398844433395197
1529 3 -2.0 6.8477358632954681 8.0110879284664520 20.2437313521344926
1530 3 -2.0 7.1645083384787576 11.2155230998530318 19.2360375345445433
1531 3 -2.0 4.8291343048497204 11.2155230998530318 18.0504108584301051
1532 3 -2.0 9.1831098969245044 8.0110879284664520 21.4293580282489380
1533 3 -2.0 5.5756628525035774 9.9799585452988531 20.5497300256895024
1534 3 -2.0 8.4365813492706501 9.2466524830206289 18.9300388609895371
1535 3 -2.0 6.1012073156416120 9.2466524830206289 18.3564095319851113
1536 3 -2.0 7.9110368861326137 9.9799585452988531 21.1233593546939282
1537 3 -2.0 8.4365813492706501 6.7755233739122724 18.9300388609895371
1538 3 -2.0 5.5756628525035774 12.4510876544072104 20.5497300256895024
1539 3 -2.0 7.9110368861326137 12.4510876544072104 21.1233593546939282
1540 3 -2.0 6.1012073156416120 6.7755233739122724 18.3564095319851113
1541 1 2.0 7.3527857444871980 8.0110879284664520 22.0351493224336572
1542 1 2.0 6.6594584572870268 11.2155230998530318 26.2179015390629466
1543 1 2.0 8.9948324909160640 11.2155230998530318 24.2284698161380483
1544 1 2.0 5.0174117108581608 8.0110879284664520 24.0245810453585555
1545 2 4.0 4.6707480672580752 9.6133055141597410 21.9332049370439108
1546 2 4.0 7.0061221008871133 9.6133055141597410 24.1265254307483019
1547 2 4.0 4.6707480672580752 6.4088703427731613 21.9332049370439108
1548 2 4.0 7.0061221008871133 6.4088703427731613 24.1265254307483019
1549 3 -2.0 6.8477358632954681 8.0110879284664520 24.6303723395432748
1550 3 -2.0 7.1645083384787576 11.2155230998530318 23.6226785219533255
1551 3 -2.0 4.8291343048497204 11.2155230998530318 22.4370518458388872
1552 3 -2.0 9.1831098969245044 8.0110879284664520 25.8159990156577202
1553 3 -2.0 5.5756628525035774 9.9799585452988531 24.9363710130982845
1554 3 -2.0 8.4365813492706501 9.2466524830206289 23.3166798483983193
1555 3 -2.0 6.1012073156416120 9.2466524830206289 22.7430505193938934
1556 3 -2.0 7.9110368861326137 9.9799585452988531 25.5100003421027104
1557 3 -2.0 8.4365813492706501 6.7755233739122724 23.3166798483983193
1558 3 -2.0 5.5756628525035774 12.4510876544072104 24.9363710130982845
1559 3 -2.0 7.9110368861326137 12.4510876544072104 25.5100003421027104
1560 3 -2.0 6.1012073156416120 6.7755233739122724 22.7430505193938934
1561 1 2.0 7.3527857444871980 8.0110879284664520 26.4217903098424394
1562 1 2.0 6.6594584572870268 11.2155230998530318 30.6045425264717288
1563 1 2.0 8.9948324909160640 11.2155230998530318 28.6151108035468305
1564 1 2.0 5.0174117108581608 8.0110879284664520 28.4112220327673377
1565 2 4.0 4.6707480672580752 9.6133055141597410 26.3198459244526930
1566 2 4.0 7.0061221008871133 9.6133055141597410 28.5131664181570841
1567 2 4.0 4.6707480672580752 6.4088703427731613 26.3198459244526930
1568 2 4.0 7.0061221008871133 6.4088703427731613 28.5131664181570841
1569 3 -2.0 6.8477358632954681 8.0110879284664520 29.0170133269520569
1570 3 -2.0 7.1645083384787576 11.2155230998530318 28.0093195093621077
1571 3 -2.0 4.8291343048497204 11.2155230998530318 26.8236928332476694
1572 3 -2.0 9.1831098969245044 8.0110879284664520 30.2026400030665023
1573 3 -2.0 5.5756628525035774 9.9799585452988531 29.3230120005070667
1574 3 -2.0 8.4365813492706501 9.2466524830206289 27.7033208358071015
1575 3 -2.0 6.1012073156416120 9.2466524830206289 27.1296915068026756
1576 3 -2.0 7.9110368861326137 9.9799585452988531 29.8966413295114926
1577 3 -2.0 8.4365813492706501 6.7755233739122724 27.7033208358071015
1578 3 -2.0 5.5756628525035774 12.4510876544072104 29.3230120005070667
1579 3 -2.0 7.9110368861326137 12.4510876544072104 29.8966413295114926
1580 3 -2.0 6.1012073156416120 6.7755233739122724 27.1296915068026756
1581 1 2.0 7.3527857444871980 8.0110879284664520 30.8084312972512215
1582 1 2.0 6.6594584572870268 11.2155230998530318 34.9911835138805074
1583 1 2.0 8.9948324909160640 11.2155230998530318 33.0017517909556162
1584 1 2.0 5.0174117108581608 8.0110879284664520 32.7978630201761163
1585 2 4.0 4.6707480672580752 9.6133055141597410 30.7064869118614752
1586 2 4.0 7.0061221008871133 9.6133055141597410 32.8998074055658662
1587 2 4.0 4.6707480672580752 6.4088703427731613 30.7064869118614752
1588 2 4.0 7.0061221008871133 6.4088703427731613 32.8998074055658662
1589 3 -2.0 6.8477358632954681 8.0110879284664520 33.4036543143608355
1590 3 -2.0 7.1645083384787576 11.2155230998530318 32.3959604967708898
1591 3 -2.0 4.8291343048497204 11.2155230998530318 31.2103338206564516
1592 3 -2.0 9.1831098969245044 8.0110879284664520 34.5892809904752880
1593 3 -2.0 5.5756628525035774 9.9799585452988531 33.7096529879158524
1594 3 -2.0 8.4365813492706501 9.2466524830206289 32.0899618232158801
1595 3 -2.0 6.1012073156416120 9.2466524830206289 31.5163324942114578
1596 3 -2.0 7.9110368861326137 9.9799585452988531 34.2832823169202712
1597 3 -2.0 8.4365813492706501 6.7755233739122724 32.0899618232158801
1598 3 -2.0 5.5756628525035774 12.4510876544072104 33.7096529879158524
1599 3 -2.0 7.9110368861326137 12.4510876544072104 34.2832823169202712
1600 3 -2.0 6.1012073156416120 6.7755233739122724 31.5163324942114578
1601 1 2.0 7.3527857444871980 14.4199582712396133 0.1019443853897463
1602 1 2.0 6.6594584572870268 17.6243934426261930 4.2846966020190349
1603 1 2.0 8.9948324909160640 17.6243934426261930 2.2952648790941383
1604 1 2.0 5.0174117108581608 14.4199582712396133 2.0913761083146447
1605 2 4.0 4.6707480672580752 16.0221758569329040 0.0000000000000000
1606 2 4.0 7.0061221008871133 16.0221758569329040 2.1933204937043911
1607 2 4.0 4.6707480672580752 12.8177406855463225 0.0000000000000000
1608 2 4.0 7.0061221008871133 12.8177406855463225 2.1933204937043911
1609 3 -2.0 6.8477358632954681 14.4199582712396133 2.6971674024993644
1610 3 -2.0 7.1645083384787576 17.6243934426261930 1.6894735849094176
1611 3 -2.0 4.8291343048497204 17.6243934426261930 0.5038469087949736
1612 3 -2.0 9.1831098969245044 14.4199582712396133 3.8827940786138089
1613 3 -2.0 5.5756628525035774 16.3888288880720161 3.0031660760543750
1614 3 -2.0 8.4365813492706501 15.6555228257937884 1.3834749113544080
1615 3 -2.0 6.1012073156416120 15.6555228257937884 0.8098455823499836
1616 3 -2.0 7.9110368861326137 16.3888288880720161 3.5767954050587982
1617 3 -2.0 8.4365813492706501 13.1843937166854346 1.3834749113544080
1618 3 -2.0 5.5756628525035774 18.8599579971803735 3.0031660760543750
1619 3 -2.0 7.9110368861326137 18.8599579971803735 3.5767954050587982
1620 3 -2.0 6.1012073156416120 13.1843937166854346 0.8098455823499836
1621 1 2.0 7.3527857444871980 14.4199582712396133 4.4885853727985285
1622 1 2.0 6.6594584572870268 17.6243934426261930 8.6713375894278162
1623 1 2.0 8.9948324909160640 17.6243934426261930 6.6819058665029205
1624 1 2.0 5.0174117108581608 14.4199582712396133 6.4780170957234269
1625 2 4.0 4.6707480672580752 16.0221758569329040 4.3866409874087822
1626 2 4.0 7.0061221008871133 16.0221758569329040 6.5799614811131732
1627 2 4.0 4.6707480672580752 12.8177406855463225 4.3866409874087822
1628 2 4.0 7.0061221008871133 12.8177406855463225 6.5799614811131732
1629 3 -2.0 6.8477358632954681 14.4199582712396133 7.0838083899081470
1630 3 -2.0 7.1645083384787576 17.6243934426261930 6.0761145723181995
1631 3 -2.0 4.8291343048497204 17.6243934426261930 4.8904878962037559
1632 3 -2.0 9.1831098969245044 14.4199582712396133 8.2694350660225915
1633 3 -2.0 5.5756628525035774 16.3888288880720161 7.3898070634631576
1634 3 -2.0 8.4365813492706501 15.6555228257937884 5.7701158987631906
1635 3 -2.0 6.1012073156416120 15.6555228257937884 5.1964865697587657
1636 3 -2.0 7.9110368861326137 16.3888288880720161 7.9634363924675799
1637 3 -2.0 8.4365813492706501 13.1843937166854346 5.7701158987631906
1638 3 -2.0 5.5756628525035774 18.8599579971803735 7.3898070634631576
1639 3 -2.0 7.9110368861326137 18.8599579971803735 7.9634363924675799
1640 3 -2.0 6.1012073156416120 13.1843937166854346 5.1964865697587657
1641 1 2.0 7.3527857444871980 14.4199582712396133 8.8752263602073107
1642 1 2.0 6.6594584572870268 17.6243934426261930 13.0579785768365984
1643 1 2.0 8.9948324909160640 17.6243934426261930 11.0685468539117036
1644 1 2.0 5.0174117108581608 14.4199582712396133 10.8646580831322090
1645 2 4.0 4.6707480672580752 16.0221758569329040 8.7732819748175643
1646 2 4.0 7.0061221008871133 16.0221758569329040 10.9666024685219554
1647 2 4.0 4.6707480672580752 12.8177406855463225 8.7732819748175643
1648 2 4.0 7.0061221008871133 12.8177406855463225 10.9666024685219554
1649 3 -2.0 6.8477358632954681 14.4199582712396133 11.4704493773169283
1650 3 -2.0 7.1645083384787576 17.6243934426261930 10.4627555597269826
1651 3 -2.0 4.8291343048497204 17.6243934426261930 9.2771288836125372
1652 3 -2.0 9.1831098969245044 14.4199582712396133 12.6560760534313737
1653 3 -2.0 5.5756628525035774 16.3888288880720161 11.7764480508719398
1654 3 -2.0 8.4365813492706501 15.6555228257937884 10.1567568861719728
1655 3 -2.0 6.1012073156416120 15.6555228257937884 9.5831275571675469
1656 3 -2.0 7.9110368861326137 16.3888288880720161 12.3500773798763621
1657 3 -2.0 8.4365813492706501 13.1843937166854346 10.1567568861719728
1658 3 -2.0 5.5756628525035774 18.8599579971803735 11.7764480508719398
1659 3 -2.0 7.9110368861326137 18.8599579971803735 12.3500773798763621
1660 3 -2.0 6.1012073156416120 13.1843937166854346 9.5831275571675469
1661 1 2.0 7.3527857444871980 14.4199582712396133 13.2618673476160929
1662 1 2.0 6.6594584572870268 17.6243934426261930 17.4446195642453823
1663 1 2.0 8.9948324909160640 17.6243934426261930 15.4551878413204857
1664 1 2.0 5.0174117108581608 14.4199582712396133 15.2512990705409912
1665 2 4.0 4.6707480672580752 16.0221758569329040 13.1599229622263465
1666 2 4.0 7.0061221008871133 16.0221758569329040 15.3532434559307376
1667 2 4.0 4.6707480672580752 12.8177406855463225 13.1599229622263465
1668 2 4.0 7.0061221008871133 12.8177406855463225 15.3532434559307376
1669 3 -2.0 6.8477358632954681 14.4199582712396133 15.8570903647257104
1670 3 -2.0 7.1645083384787576 17.6243934426261930 14.8493965471357647
1671 3 -2.0 4.8291343048497204 17.6243934426261930 13.6637698710213193
1672 3 -2.0 9.1831098969245044 14.4199582712396133 17.0427170408401558
1673 3 -2.0 5.5756628525035774 16.3888288880720161 16.1630890382807237
1674 3 -2.0 8.4365813492706501 15.6555228257937884 14.5433978735807550
1675 3 -2.0 6.1012073156416120 15.6555228257937884 13.9697685445763291
1676 3 -2.0 7.9110368861326137 16.3888288880720161 16.7367183672851425
1677 3 -2.0 8.4365813492706501 13.1843937166854346 14.5433978735807550
1678 3 -2.0 5.5756628525035774 18.8599579971803735 16.1630890382807237
1679 3 -2.0 7.9110368861326137 18.8599579971803735 16.7367183672851425
1680 3 -2.0 6.1012073156416120 13.1843937166854346 13.9697685445763291
1681 1 2.0 7.3527857444871980 14.4199582712396133 17.6485083350248750
1682 1 2.0 6.6594584572870268 17.6243934426261930 21.8312605516541645
1683 1 2.0 8.9948324909160640 17.6243934426261930 19.8418288287292661
1684 1 2.0 5.0174117108581608 14.4199582712396133 19.6379400579497734
1685 2 4.0 4.6707480672580752 16.0221758569329040 17.5465639496351287
1686 2 4.0 7.0061221008871133 16.0221758569329040 19.7398844433395197
1687 2 4.0 4.6707480672580752 12.8177406855463225 17.5465639496351287
1688 2 4.0 7.0061221008871133 12.8177406855463225 19.7398844433395197
1689 3 -2.0 6.8477358632954681 14.4199582712396133 20.2437313521344926
1690 3 -2.0 7.1645083384787576 17.6243934426261930 19.2360375345445433
1691 3 -2.0 4.8291343048497204 17.6243934426261930 18.0504108584301051
1692 3 -2.0 9.1831098969245044 14.4199582712396133 21.4293580282489380
1693 3 -2.0 5.5756628525035774 16.3888288880720161 20.5497300256895024
1694 3 -2.0 8.4365813492706501 15.6555228257937884 18.9300388609895371
1695 3 -2.0 6.1012073156416120 15.6555228257937884 18.3564095319851113
1696 3 -2.0 7.9110368861326137 16.3888288880720161 21.1233593546939282
1697 3 -2.0 8.4365813492706501 13.1843937166854346 18.9300388609895371
1698 3 -2.0 5.5756628525035774 18.8599579971803735 20.5497300256895024
1699 3 -2.0 7.9110368861326137 18.8599579971803735 21.1233593546939282
1700 3 -2.0 6.1012073156416120 13.1843937166854346 18.3564095319851113
1701 1 2.0 7.3527857444871980 14.4199582712396133 22.0351493224336572
1702 1 2.0 6.6594584572870268 17.6243934426261930 26.2179015390629466
1703 1 2.0 8.9948324909160640 17.6243934426261930 24.2284698161380483
1704 1 2.0 5.0174117108581608 14.4199582712396133 24.0245810453585555
1705 2 4.0 4.6707480672580752 16.0221758569329040 21.9332049370439108
1706 2 4.0 7.0061221008871133 16.0221758569329040 24.1265254307483019
1707 2 4.0 4.6707480672580752 12.8177406855463225 21.9332049370439108
1708 2 4.0 7.0061221008871133 12.8177406855463225 24.1265254307483019
1709 3 -2.0 6.8477358632954681 14.4199582712396133 24.6303723395432748
1710 3 -2.0 7.1645083384787576 17.6243934426261930 23.6226785219533255
1711 3 -2.0 4.8291343048497204 17.6243934426261930 22.4370518458388872
1712 3 -2.0 9.1831098969245044 14.4199582712396133 25.8159990156577202
1713 3 -2.0 5.5756628525035774 16.3888288880720161 24.9363710130982845
1714 3 -2.0 8.4365813492706501 15.6555228257937884 23.3166798483983193
1715 3 -2.0 6.1012073156416120 15.6555228257937884 22.7430505193938934
1716 3 -2.0 7.9110368861326137 16.3888288880720161 25.5100003421027104
1717 3 -2.0 8.4365813492706501 13.1843937166854346 23.3166798483983193
1718 3 -2.0 5.5756628525035774 18.8599579971803735 24.9363710130982845
1719 3 -2.0 7.9110368861326137 18.8599579971803735 25.5100003421027104
1720 3 -2.0 6.1012073156416120 13.1843937166854346 22.7430505193938934
1721 1 2.0 7.3527857444871980 14.4199582712396133 26.4217903098424394
1722 1 2.0 6.6594584572870268 17.6243934426261930 30.6045425264717288
1723 1 2.0 8.9948324909160640 17.6243934426261930 28.6151108035468305
1724 1 2.0 5.0174117108581608 14.4199582712396133 28.4112220327673377
1725 2 4.0 4.6707480672580752 16.0221758569329040 26.3198459244526930
1726 2 4.0 7.0061221008871133 16.0221758569329040 28.5131664181570841
1727 2 4.0 4.6707480672580752 12.8177406855463225 26.3198459244526930
1728 2 4.0 7.0061221008871133 12.8177406855463225 28.5131664181570841
1729 3 -2.0 6.8477358632954681 14.4199582712396133 29.0170133269520569
1730 3 -2.0 7.1645083384787576 17.6243934426261930 28.0093195093621077
1731 3 -2.0 4.8291343048497204 17.6243934426261930 26.8236928332476694
1732 3 -2.0 9.1831098969245044 14.4199582712396133 30.2026400030665023
1733 3 -2.0 5.5756628525035774 16.3888288880720161 29.3230120005070667
1734 3 -2.0 8.4365813492706501 15.6555228257937884 27.7033208358071015
1735 3 -2.0 6.1012073156416120 15.6555228257937884 27.1296915068026756
1736 3 -2.0 7.9110368861326137 16.3888288880720161 29.8966413295114926
1737 3 -2.0 8.4365813492706501 13.1843937166854346 27.7033208358071015
1738 3 -2.0 5.5756628525035774 18.8599579971803735 29.3230120005070667
1739 3 -2.0 7.9110368861326137 18.8599579971803735 29.8966413295114926
1740 3 -2.0 6.1012073156416120 13.1843937166854346 27.1296915068026756
1741 1 2.0 7.3527857444871980 14.4199582712396133 30.8084312972512215
1742 1 2.0 6.6594584572870268 17.6243934426261930 34.9911835138805074
1743 1 2.0 8.9948324909160640 17.6243934426261930 33.0017517909556162
1744 1 2.0 5.0174117108581608 14.4199582712396133 32.7978630201761163
1745 2 4.0 4.6707480672580752 16.0221758569329040 30.7064869118614752
1746 2 4.0 7.0061221008871133 16.0221758569329040 32.8998074055658662
1747 2 4.0 4.6707480672580752 12.8177406855463225 30.7064869118614752
1748 2 4.0 7.0061221008871133 12.8177406855463225 32.8998074055658662
1749 3 -2.0 6.8477358632954681 14.4199582712396133 33.4036543143608355
1750 3 -2.0 7.1645083384787576 17.6243934426261930 32.3959604967708898
1751 3 -2.0 4.8291343048497204 17.6243934426261930 31.2103338206564516
1752 3 -2.0 9.1831098969245044 14.4199582712396133 34.5892809904752880
1753 3 -2.0 5.5756628525035774 16.3888288880720161 33.7096529879158524
1754 3 -2.0 8.4365813492706501 15.6555228257937884 32.0899618232158801
1755 3 -2.0 6.1012073156416120 15.6555228257937884 31.5163324942114578
1756 3 -2.0 7.9110368861326137 16.3888288880720161 34.2832823169202712
1757 3 -2.0 8.4365813492706501 13.1843937166854346 32.0899618232158801
1758 3 -2.0 5.5756628525035774 18.8599579971803735 33.7096529879158524
1759 3 -2.0 7.9110368861326137 18.8599579971803735 34.2832823169202712
1760 3 -2.0 6.1012073156416120 13.1843937166854346 31.5163324942114578
1761 1 2.0 7.3527857444871980 20.8288286140127745 0.1019443853897463
1762 1 2.0 6.6594584572870268 24.0332637853993560 4.2846966020190349
1763 1 2.0 8.9948324909160640 24.0332637853993560 2.2952648790941383
1764 1 2.0 5.0174117108581608 20.8288286140127745 2.0913761083146447
1765 2 4.0 4.6707480672580752 22.4310461997060635 0.0000000000000000
1766 2 4.0 7.0061221008871133 22.4310461997060635 2.1933204937043911
1767 2 4.0 4.6707480672580752 19.2266110283194820 0.0000000000000000
1768 2 4.0 7.0061221008871133 19.2266110283194820 2.1933204937043911
1769 3 -2.0 6.8477358632954681 20.8288286140127745 2.6971674024993644
1770 3 -2.0 7.1645083384787576 24.0332637853993560 1.6894735849094176
1771 3 -2.0 4.8291343048497204 24.0332637853993560 0.5038469087949736
1772 3 -2.0 9.1831098969245044 20.8288286140127745 3.8827940786138089
1773 3 -2.0 5.5756628525035774 22.7976992308451756 3.0031660760543750
1774 3 -2.0 8.4365813492706501 22.0643931685669514 1.3834749113544080
1775 3 -2.0 6.1012073156416120 22.0643931685669514 0.8098455823499836
1776 3 -2.0 7.9110368861326137 22.7976992308451756 3.5767954050587982
1777 3 -2.0 8.4365813492706501 19.5932640594585941 1.3834749113544080
1778 3 -2.0 5.5756628525035774 25.2688283399535329 3.0031660760543750
1779 3 -2.0 7.9110368861326137 25.2688283399535329 3.5767954050587982
1780 3 -2.0 6.1012073156416120 19.5932640594585941 0.8098455823499836
1781 1 2.0 7.3527857444871980 20.8288286140127745 4.4885853727985285
1782 1 2.0 6.6594584572870268 24.0332637853993560 8.6713375894278162
1783 1 2.0 8.9948324909160640 24.0332637853993560 6.6819058665029205
1784 1 2.0 5.0174117108581608 20.8288286140127745 6.4780170957234269
1785 2 4.0 4.6707480672580752 22.4310461997060635 4.3866409874087822
1786 2 4.0 7.0061221008871133 22.4310461997060635 6.5799614811131732
1787 2 4.0 4.6707480672580752 19.2266110283194820 4.3866409874087822
1788 2 4.0 7.0061221008871133 19.2266110283194820 6.5799614811131732
1789 3 -2.0 6.8477358632954681 20.8288286140127745 7.0838083899081470
1790 3 -2.0 7.1645083384787576 24.0332637853993560 6.0761145723181995
1791 3 -2.0 4.8291343048497204 24.0332637853993560 4.8904878962037559
1792 3 -2.0 9.1831098969245044 20.8288286140127745 8.2694350660225915
1793 3 -2.0 5.5756628525035774 22.7976992308451756 7.3898070634631576
1794 3 -2.0 8.4365813492706501 22.0643931685669514 5.7701158987631906
1795 3 -2.0 6.1012073156416120 22.0643931685669514 5.1964865697587657
1796 3 -2.0 7.9110368861326137 22.7976992308451756 7.9634363924675799
1797 3 -2.0 8.4365813492706501 19.5932640594585941 5.7701158987631906
1798 3 -2.0 5.5756628525035774 25.2688283399535329 7.3898070634631576
1799 3 -2.0 7.9110368861326137 25.2688283399535329 7.9634363924675799
1800 3 -2.0 6.1012073156416120 19.5932640594585941 5.1964865697587657
1801 1 2.0 7.3527857444871980 20.8288286140127745 8.8752263602073107
1802 1 2.0 6.6594584572870268 24.0332637853993560 13.0579785768365984
1803 1 2.0 8.9948324909160640 24.0332637853993560 11.0685468539117036
1804 1 2.0 5.0174117108581608 20.8288286140127745 10.8646580831322090
1805 2 4.0 4.6707480672580752 22.4310461997060635 8.7732819748175643
1806 2 4.0 7.0061221008871133 22.4310461997060635 10.9666024685219554
1807 2 4.0 4.6707480672580752 19.2266110283194820 8.7732819748175643
1808 2 4.0 7.0061221008871133 19.2266110283194820 10.9666024685219554
1809 3 -2.0 6.8477358632954681 20.8288286140127745 11.4704493773169283
1810 3 -2.0 7.1645083384787576 24.0332637853993560 10.4627555597269826
1811 3 -2.0 4.8291343048497204 24.0332637853993560 9.2771288836125372
1812 3 -2.0 9.1831098969245044 20.8288286140127745 12.6560760534313737
1813 3 -2.0 5.5756628525035774 22.7976992308451756 11.7764480508719398
1814 3 -2.0 8.4365813492706501 22.0643931685669514 10.1567568861719728
1815 3 -2.0 6.1012073156416120 22.0643931685669514 9.5831275571675469
1816 3 -2.0 7.9110368861326137 22.7976992308451756 12.3500773798763621
1817 3 -2.0 8.4365813492706501 19.5932640594585941 10.1567568861719728
1818 3 -2.0 5.5756628525035774 25.2688283399535329 11.7764480508719398
1819 3 -2.0 7.9110368861326137 25.2688283399535329 12.3500773798763621
1820 3 -2.0 6.1012073156416120 19.5932640594585941 9.5831275571675469
1821 1 2.0 7.3527857444871980 20.8288286140127745 13.2618673476160929
1822 1 2.0 6.6594584572870268 24.0332637853993560 17.4446195642453823
1823 1 2.0 8.9948324909160640 24.0332637853993560 15.4551878413204857
1824 1 2.0 5.0174117108581608 20.8288286140127745 15.2512990705409912
1825 2 4.0 4.6707480672580752 22.4310461997060635 13.1599229622263465
1826 2 4.0 7.0061221008871133 22.4310461997060635 15.3532434559307376
1827 2 4.0 4.6707480672580752 19.2266110283194820 13.1599229622263465
1828 2 4.0 7.0061221008871133 19.2266110283194820 15.3532434559307376
1829 3 -2.0 6.8477358632954681 20.8288286140127745 15.8570903647257104
1830 3 -2.0 7.1645083384787576 24.0332637853993560 14.8493965471357647
1831 3 -2.0 4.8291343048497204 24.0332637853993560 13.6637698710213193
1832 3 -2.0 9.1831098969245044 20.8288286140127745 17.0427170408401558
1833 3 -2.0 5.5756628525035774 22.7976992308451756 16.1630890382807237
1834 3 -2.0 8.4365813492706501 22.0643931685669514 14.5433978735807550
1835 3 -2.0 6.1012073156416120 22.0643931685669514 13.9697685445763291
1836 3 -2.0 7.9110368861326137 22.7976992308451756 16.7367183672851425
1837 3 -2.0 8.4365813492706501 19.5932640594585941 14.5433978735807550
1838 3 -2.0 5.5756628525035774 25.2688283399535329 16.1630890382807237
1839 3 -2.0 7.9110368861326137 25.2688283399535329 16.7367183672851425
1840 3 -2.0 6.1012073156416120 19.5932640594585941 13.9697685445763291
1841 1 2.0 7.3527857444871980 20.8288286140127745 17.6485083350248750
1842 1 2.0 6.6594584572870268 24.0332637853993560 21.8312605516541645
1843 1 2.0 8.9948324909160640 24.0332637853993560 19.8418288287292661
1844 1 2.0 5.0174117108581608 20.8288286140127745 19.6379400579497734
1845 2 4.0 4.6707480672580752 22.4310461997060635 17.5465639496351287
1846 2 4.0 7.0061221008871133 22.4310461997060635 19.7398844433395197
1847 2 4.0 4.6707480672580752 19.2266110283194820 17.5465639496351287
1848 2 4.0 7.0061221008871133 19.2266110283194820 19.7398844433395197
1849 3 -2.0 6.8477358632954681 20.8288286140127745 20.2437313521344926
1850 3 -2.0 7.1645083384787576 24.0332637853993560 19.2360375345445433
1851 3 -2.0 4.8291343048497204 24.0332637853993560 18.0504108584301051
1852 3 -2.0 9.1831098969245044 20.8288286140127745 21.4293580282489380
1853 3 -2.0 5.5756628525035774 22.7976992308451756 20.5497300256895024
1854 3 -2.0 8.4365813492706501 22.0643931685669514 18.9300388609895371
1855 3 -2.0 6.1012073156416120 22.0643931685669514 18.3564095319851113
1856 3 -2.0 7.9110368861326137 22.7976992308451756 21.1233593546939282
1857 3 -2.0 8.4365813492706501 19.5932640594585941 18.9300388609895371
1858 3 -2.0 5.5756628525035774 25.2688283399535329 20.5497300256895024
1859 3 -2.0 7.9110368861326137 25.2688283399535329 21.1233593546939282
1860 3 -2.0 6.1012073156416120 19.5932640594585941 18.3564095319851113
1861 1 2.0 7.3527857444871980 20.8288286140127745 22.0351493224336572
1862 1 2.0 6.6594584572870268 24.0332637853993560 26.2179015390629466
1863 1 2.0 8.9948324909160640 24.0332637853993560 24.2284698161380483
1864 1 2.0 5.0174117108581608 20.8288286140127745 24.0245810453585555
1865 2 4.0 4.6707480672580752 22.4310461997060635 21.9332049370439108
1866 2 4.0 7.0061221008871133 22.4310461997060635 24.1265254307483019
1867 2 4.0 4.6707480672580752 19.2266110283194820 21.9332049370439108
1868 2 4.0 7.0061221008871133 19.2266110283194820 24.1265254307483019
1869 3 -2.0 6.8477358632954681 20.8288286140127745 24.6303723395432748
1870 3 -2.0 7.1645083384787576 24.0332637853993560 23.6226785219533255
1871 3 -2.0 4.8291343048497204 24.0332637853993560 22.4370518458388872
1872 3 -2.0 9.1831098969245044 20.8288286140127745 25.8159990156577202
1873 3 -2.0 5.5756628525035774 22.7976992308451756 24.9363710130982845
1874 3 -2.0 8.4365813492706501 22.0643931685669514 23.3166798483983193
1875 3 -2.0 6.1012073156416120 22.0643931685669514 22.7430505193938934
1876 3 -2.0 7.9110368861326137 22.7976992308451756 25.5100003421027104
1877 3 -2.0 8.4365813492706501 19.5932640594585941 23.3166798483983193
1878 3 -2.0 5.5756628525035774 25.2688283399535329 24.9363710130982845
1879 3 -2.0 7.9110368861326137 25.2688283399535329 25.5100003421027104
1880 3 -2.0 6.1012073156416120 19.5932640594585941 22.7430505193938934
1881 1 2.0 7.3527857444871980 20.8288286140127745 26.4217903098424394
1882 1 2.0 6.6594584572870268 24.0332637853993560 30.6045425264717288
1883 1 2.0 8.9948324909160640 24.0332637853993560 28.6151108035468305
1884 1 2.0 5.0174117108581608 20.8288286140127745 28.4112220327673377
1885 2 4.0 4.6707480672580752 22.4310461997060635 26.3198459244526930
1886 2 4.0 7.0061221008871133 22.4310461997060635 28.5131664181570841
1887 2 4.0 4.6707480672580752 19.2266110283194820 26.3198459244526930
1888 2 4.0 7.0061221008871133 19.2266110283194820 28.5131664181570841
1889 3 -2.0 6.8477358632954681 20.8288286140127745 29.0170133269520569
1890 3 -2.0 7.1645083384787576 24.0332637853993560 28.0093195093621077
1891 3 -2.0 4.8291343048497204 24.0332637853993560 26.8236928332476694
1892 3 -2.0 9.1831098969245044 20.8288286140127745 30.2026400030665023
1893 3 -2.0 5.5756628525035774 22.7976992308451756 29.3230120005070667
1894 3 -2.0 8.4365813492706501 22.0643931685669514 27.7033208358071015
1895 3 -2.0 6.1012073156416120 22.0643931685669514 27.1296915068026756
1896 3 -2.0 7.9110368861326137 22.7976992308451756 29.8966413295114926
1897 3 -2.0 8.4365813492706501 19.5932640594585941 27.7033208358071015
1898 3 -2.0 5.5756628525035774 25.2688283399535329 29.3230120005070667
1899 3 -2.0 7.9110368861326137 25.2688283399535329 29.8966413295114926
1900 3 -2.0 6.1012073156416120 19.5932640594585941 27.1296915068026756
1901 1 2.0 7.3527857444871980 20.8288286140127745 30.8084312972512215
1902 1 2.0 6.6594584572870268 24.0332637853993560 34.9911835138805074
1903 1 2.0 8.9948324909160640 24.0332637853993560 33.0017517909556162
1904 1 2.0 5.0174117108581608 20.8288286140127745 32.7978630201761163
1905 2 4.0 4.6707480672580752 22.4310461997060635 30.7064869118614752
1906 2 4.0 7.0061221008871133 22.4310461997060635 32.8998074055658662
1907 2 4.0 4.6707480672580752 19.2266110283194820 30.7064869118614752
1908 2 4.0 7.0061221008871133 19.2266110283194820 32.8998074055658662
1909 3 -2.0 6.8477358632954681 20.8288286140127745 33.4036543143608355
1910 3 -2.0 7.1645083384787576 24.0332637853993560 32.3959604967708898
1911 3 -2.0 4.8291343048497204 24.0332637853993560 31.2103338206564516
1912 3 -2.0 9.1831098969245044 20.8288286140127745 34.5892809904752880
1913 3 -2.0 5.5756628525035774 22.7976992308451756 33.7096529879158524
1914 3 -2.0 8.4365813492706501 22.0643931685669514 32.0899618232158801
1915 3 -2.0 6.1012073156416120 22.0643931685669514 31.5163324942114578
1916 3 -2.0 7.9110368861326137 22.7976992308451756 34.2832823169202712
1917 3 -2.0 8.4365813492706501 19.5932640594585941 32.0899618232158801
1918 3 -2.0 5.5756628525035774 25.2688283399535329 33.7096529879158524
1919 3 -2.0 7.9110368861326137 25.2688283399535329 34.2832823169202712
1920 3 -2.0 6.1012073156416120 19.5932640594585941 31.5163324942114578
1921 1 2.0 7.3527857444871980 27.2376989567859340 0.1019443853897463
1922 1 2.0 6.6594584572870268 30.4421341281725155 4.2846966020190349
1923 1 2.0 8.9948324909160640 30.4421341281725155 2.2952648790941383
1924 1 2.0 5.0174117108581608 27.2376989567859340 2.0913761083146447
1925 2 4.0 4.6707480672580752 28.8399165424792265 0.0000000000000000
1926 2 4.0 7.0061221008871133 28.8399165424792265 2.1933204937043911
1927 2 4.0 4.6707480672580752 25.6354813710926450 0.0000000000000000
1928 2 4.0 7.0061221008871133 25.6354813710926450 2.1933204937043911
1929 3 -2.0 6.8477358632954681 27.2376989567859340 2.6971674024993644
1930 3 -2.0 7.1645083384787576 30.4421341281725155 1.6894735849094176
1931 3 -2.0 4.8291343048497204 30.4421341281725155 0.5038469087949736
1932 3 -2.0 9.1831098969245044 27.2376989567859340 3.8827940786138089
1933 3 -2.0 5.5756628525035774 29.2065695736183386 3.0031660760543750
1934 3 -2.0 8.4365813492706501 28.4732635113401109 1.3834749113544080
1935 3 -2.0 6.1012073156416120 28.4732635113401109 0.8098455823499836
1936 3 -2.0 7.9110368861326137 29.2065695736183386 3.5767954050587982
1937 3 -2.0 8.4365813492706501 26.0021344022317606 1.3834749113544080
1938 3 -2.0 5.5756628525035774 31.6776986827266924 3.0031660760543750
1939 3 -2.0 7.9110368861326137 31.6776986827266924 3.5767954050587982
1940 3 -2.0 6.1012073156416120 26.0021344022317606 0.8098455823499836
1941 1 2.0 7.3527857444871980 27.2376989567859340 4.4885853727985285
1942 1 2.0 6.6594584572870268 30.4421341281725155 8.6713375894278162
1943 1 2.0 8.9948324909160640 30.4421341281725155 6.6819058665029205
1944 1 2.0 5.0174117108581608 27.2376989567859340 6.4780170957234269
1945 2 4.0 4.6707480672580752 28.8399165424792265 4.3866409874087822
1946 2 4.0 7.0061221008871133 28.8399165424792265 6.5799614811131732
1947 2 4.0 4.6707480672580752 25.6354813710926450 4.3866409874087822
1948 2 4.0 7.0061221008871133 25.6354813710926450 6.5799614811131732
1949 3 -2.0 6.8477358632954681 27.2376989567859340 7.0838083899081470
1950 3 -2.0 7.1645083384787576 30.4421341281725155 6.0761145723181995
1951 3 -2.0 4.8291343048497204 30.4421341281725155 4.8904878962037559
1952 3 -2.0 9.1831098969245044 27.2376989567859340 8.2694350660225915
1953 3 -2.0 5.5756628525035774 29.2065695736183386 7.3898070634631576
1954 3 -2.0 8.4365813492706501 28.4732635113401109 5.7701158987631906
1955 3 -2.0 6.1012073156416120 28.4732635113401109 5.1964865697587657
1956 3 -2.0 7.9110368861326137 29.2065695736183386 7.9634363924675799
1957 3 -2.0 8.4365813492706501 26.0021344022317606 5.7701158987631906
1958 3 -2.0 5.5756628525035774 31.6776986827266924 7.3898070634631576
1959 3 -2.0 7.9110368861326137 31.6776986827266924 7.9634363924675799
1960 3 -2.0 6.1012073156416120 26.0021344022317606 5.1964865697587657
1961 1 2.0 7.3527857444871980 27.2376989567859340 8.8752263602073107
1962 1 2.0 6.6594584572870268 30.4421341281725155 13.0579785768365984
1963 1 2.0 8.9948324909160640 30.4421341281725155 11.0685468539117036
1964 1 2.0 5.0174117108581608 27.2376989567859340 10.8646580831322090
1965 2 4.0 4.6707480672580752 28.8399165424792265 8.7732819748175643
1966 2 4.0 7.0061221008871133 28.8399165424792265 10.9666024685219554
1967 2 4.0 4.6707480672580752 25.6354813710926450 8.7732819748175643
1968 2 4.0 7.0061221008871133 25.6354813710926450 10.9666024685219554
1969 3 -2.0 6.8477358632954681 27.2376989567859340 11.4704493773169283
1970 3 -2.0 7.1645083384787576 30.4421341281725155 10.4627555597269826
1971 3 -2.0 4.8291343048497204 30.4421341281725155 9.2771288836125372
1972 3 -2.0 9.1831098969245044 27.2376989567859340 12.6560760534313737
1973 3 -2.0 5.5756628525035774 29.2065695736183386 11.7764480508719398
1974 3 -2.0 8.4365813492706501 28.4732635113401109 10.1567568861719728
1975 3 -2.0 6.1012073156416120 28.4732635113401109 9.5831275571675469
1976 3 -2.0 7.9110368861326137 29.2065695736183386 12.3500773798763621
1977 3 -2.0 8.4365813492706501 26.0021344022317606 10.1567568861719728
1978 3 -2.0 5.5756628525035774 31.6776986827266924 11.7764480508719398
1979 3 -2.0 7.9110368861326137 31.6776986827266924 12.3500773798763621
1980 3 -2.0 6.1012073156416120 26.0021344022317606 9.5831275571675469
1981 1 2.0 7.3527857444871980 27.2376989567859340 13.2618673476160929
1982 1 2.0 6.6594584572870268 30.4421341281725155 17.4446195642453823
1983 1 2.0 8.9948324909160640 30.4421341281725155 15.4551878413204857
1984 1 2.0 5.0174117108581608 27.2376989567859340 15.2512990705409912
1985 2 4.0 4.6707480672580752 28.8399165424792265 13.1599229622263465
1986 2 4.0 7.0061221008871133 28.8399165424792265 15.3532434559307376
1987 2 4.0 4.6707480672580752 25.6354813710926450 13.1599229622263465
1988 2 4.0 7.0061221008871133 25.6354813710926450 15.3532434559307376
1989 3 -2.0 6.8477358632954681 27.2376989567859340 15.8570903647257104
1990 3 -2.0 7.1645083384787576 30.4421341281725155 14.8493965471357647
1991 3 -2.0 4.8291343048497204 30.4421341281725155 13.6637698710213193
1992 3 -2.0 9.1831098969245044 27.2376989567859340 17.0427170408401558
1993 3 -2.0 5.5756628525035774 29.2065695736183386 16.1630890382807237
1994 3 -2.0 8.4365813492706501 28.4732635113401109 14.5433978735807550
1995 3 -2.0 6.1012073156416120 28.4732635113401109 13.9697685445763291
1996 3 -2.0 7.9110368861326137 29.2065695736183386 16.7367183672851425
1997 3 -2.0 8.4365813492706501 26.0021344022317606 14.5433978735807550
1998 3 -2.0 5.5756628525035774 31.6776986827266924 16.1630890382807237
1999 3 -2.0 7.9110368861326137 31.6776986827266924 16.7367183672851425
2000 3 -2.0 6.1012073156416120 26.0021344022317606 13.9697685445763291
2001 1 2.0 7.3527857444871980 27.2376989567859340 17.6485083350248750
2002 1 2.0 6.6594584572870268 30.4421341281725155 21.8312605516541645
2003 1 2.0 8.9948324909160640 30.4421341281725155 19.8418288287292661
2004 1 2.0 5.0174117108581608 27.2376989567859340 19.6379400579497734
2005 2 4.0 4.6707480672580752 28.8399165424792265 17.5465639496351287
2006 2 4.0 7.0061221008871133 28.8399165424792265 19.7398844433395197
2007 2 4.0 4.6707480672580752 25.6354813710926450 17.5465639496351287
2008 2 4.0 7.0061221008871133 25.6354813710926450 19.7398844433395197
2009 3 -2.0 6.8477358632954681 27.2376989567859340 20.2437313521344926
2010 3 -2.0 7.1645083384787576 30.4421341281725155 19.2360375345445433
2011 3 -2.0 4.8291343048497204 30.4421341281725155 18.0504108584301051
2012 3 -2.0 9.1831098969245044 27.2376989567859340 21.4293580282489380
2013 3 -2.0 5.5756628525035774 29.2065695736183386 20.5497300256895024
2014 3 -2.0 8.4365813492706501 28.4732635113401109 18.9300388609895371
2015 3 -2.0 6.1012073156416120 28.4732635113401109 18.3564095319851113
2016 3 -2.0 7.9110368861326137 29.2065695736183386 21.1233593546939282
2017 3 -2.0 8.4365813492706501 26.0021344022317606 18.9300388609895371
2018 3 -2.0 5.5756628525035774 31.6776986827266924 20.5497300256895024
2019 3 -2.0 7.9110368861326137 31.6776986827266924 21.1233593546939282
2020 3 -2.0 6.1012073156416120 26.0021344022317606 18.3564095319851113
2021 1 2.0 7.3527857444871980 27.2376989567859340 22.0351493224336572
2022 1 2.0 6.6594584572870268 30.4421341281725155 26.2179015390629466
2023 1 2.0 8.9948324909160640 30.4421341281725155 24.2284698161380483
2024 1 2.0 5.0174117108581608 27.2376989567859340 24.0245810453585555
2025 2 4.0 4.6707480672580752 28.8399165424792265 21.9332049370439108
2026 2 4.0 7.0061221008871133 28.8399165424792265 24.1265254307483019
2027 2 4.0 4.6707480672580752 25.6354813710926450 21.9332049370439108
2028 2 4.0 7.0061221008871133 25.6354813710926450 24.1265254307483019
2029 3 -2.0 6.8477358632954681 27.2376989567859340 24.6303723395432748
2030 3 -2.0 7.1645083384787576 30.4421341281725155 23.6226785219533255
2031 3 -2.0 4.8291343048497204 30.4421341281725155 22.4370518458388872
2032 3 -2.0 9.1831098969245044 27.2376989567859340 25.8159990156577202
2033 3 -2.0 5.5756628525035774 29.2065695736183386 24.9363710130982845
2034 3 -2.0 8.4365813492706501 28.4732635113401109 23.3166798483983193
2035 3 -2.0 6.1012073156416120 28.4732635113401109 22.7430505193938934
2036 3 -2.0 7.9110368861326137 29.2065695736183386 25.5100003421027104
2037 3 -2.0 8.4365813492706501 26.0021344022317606 23.3166798483983193
2038 3 -2.0 5.5756628525035774 31.6776986827266924 24.9363710130982845
2039 3 -2.0 7.9110368861326137 31.6776986827266924 25.5100003421027104
2040 3 -2.0 6.1012073156416120 26.0021344022317606 22.7430505193938934
2041 1 2.0 7.3527857444871980 27.2376989567859340 26.4217903098424394
2042 1 2.0 6.6594584572870268 30.4421341281725155 30.6045425264717288
2043 1 2.0 8.9948324909160640 30.4421341281725155 28.6151108035468305
2044 1 2.0 5.0174117108581608 27.2376989567859340 28.4112220327673377
2045 2 4.0 4.6707480672580752 28.8399165424792265 26.3198459244526930
2046 2 4.0 7.0061221008871133 28.8399165424792265 28.5131664181570841
2047 2 4.0 4.6707480672580752 25.6354813710926450 26.3198459244526930
2048 2 4.0 7.0061221008871133 25.6354813710926450 28.5131664181570841
2049 3 -2.0 6.8477358632954681 27.2376989567859340 29.0170133269520569
2050 3 -2.0 7.1645083384787576 30.4421341281725155 28.0093195093621077
2051 3 -2.0 4.8291343048497204 30.4421341281725155 26.8236928332476694
2052 3 -2.0 9.1831098969245044 27.2376989567859340 30.2026400030665023
2053 3 -2.0 5.5756628525035774 29.2065695736183386 29.3230120005070667
2054 3 -2.0 8.4365813492706501 28.4732635113401109 27.7033208358071015
2055 3 -2.0 6.1012073156416120 28.4732635113401109 27.1296915068026756
2056 3 -2.0 7.9110368861326137 29.2065695736183386 29.8966413295114926
2057 3 -2.0 8.4365813492706501 26.0021344022317606 27.7033208358071015
2058 3 -2.0 5.5756628525035774 31.6776986827266924 29.3230120005070667
2059 3 -2.0 7.9110368861326137 31.6776986827266924 29.8966413295114926
2060 3 -2.0 6.1012073156416120 26.0021344022317606 27.1296915068026756
2061 1 2.0 7.3527857444871980 27.2376989567859340 30.8084312972512215
2062 1 2.0 6.6594584572870268 30.4421341281725155 34.9911835138805074
2063 1 2.0 8.9948324909160640 30.4421341281725155 33.0017517909556162
2064 1 2.0 5.0174117108581608 27.2376989567859340 32.7978630201761163
2065 2 4.0 4.6707480672580752 28.8399165424792265 30.7064869118614752
2066 2 4.0 7.0061221008871133 28.8399165424792265 32.8998074055658662
2067 2 4.0 4.6707480672580752 25.6354813710926450 30.7064869118614752
2068 2 4.0 7.0061221008871133 25.6354813710926450 32.8998074055658662
2069 3 -2.0 6.8477358632954681 27.2376989567859340 33.4036543143608355
2070 3 -2.0 7.1645083384787576 30.4421341281725155 32.3959604967708898
2071 3 -2.0 4.8291343048497204 30.4421341281725155 31.2103338206564516
2072 3 -2.0 9.1831098969245044 27.2376989567859340 34.5892809904752880
2073 3 -2.0 5.5756628525035774 29.2065695736183386 33.7096529879158524
2074 3 -2.0 8.4365813492706501 28.4732635113401109 32.0899618232158801
2075 3 -2.0 6.1012073156416120 28.4732635113401109 31.5163324942114578
2076 3 -2.0 7.9110368861326137 29.2065695736183386 34.2832823169202712
2077 3 -2.0 8.4365813492706501 26.0021344022317606 32.0899618232158801
2078 3 -2.0 5.5756628525035774 31.6776986827266924 33.7096529879158524
2079 3 -2.0 7.9110368861326137 31.6776986827266924 34.2832823169202712
2080 3 -2.0 6.1012073156416120 26.0021344022317606 31.5163324942114578
2081 1 2.0 7.3527857444871980 33.6465692995590970 0.1019443853897463
2082 1 2.0 6.6594584572870268 36.8510044709456750 4.2846966020190349
2083 1 2.0 8.9948324909160640 36.8510044709456750 2.2952648790941383
2084 1 2.0 5.0174117108581608 33.6465692995590970 2.0913761083146447
2085 2 4.0 4.6707480672580752 35.2487868852523860 0.0000000000000000
2086 2 4.0 7.0061221008871133 35.2487868852523860 2.1933204937043911
2087 2 4.0 4.6707480672580752 32.0443517138658081 0.0000000000000000
2088 2 4.0 7.0061221008871133 32.0443517138658081 2.1933204937043911
2089 3 -2.0 6.8477358632954681 33.6465692995590970 2.6971674024993644
2090 3 -2.0 7.1645083384787576 36.8510044709456750 1.6894735849094176
2091 3 -2.0 4.8291343048497204 36.8510044709456750 0.5038469087949736
2092 3 -2.0 9.1831098969245044 33.6465692995590970 3.8827940786138089
2093 3 -2.0 5.5756628525035774 35.6154399163915016 3.0031660760543750
2094 3 -2.0 8.4365813492706501 34.8821338541132704 1.3834749113544080
2095 3 -2.0 6.1012073156416120 34.8821338541132704 0.8098455823499836
2096 3 -2.0 7.9110368861326137 35.6154399163915016 3.5767954050587982
2097 3 -2.0 8.4365813492706501 32.4110047450049237 1.3834749113544080
2098 3 -2.0 5.5756628525035774 38.0865690254998555 3.0031660760543750
2099 3 -2.0 7.9110368861326137 38.0865690254998555 3.5767954050587982
2100 3 -2.0 6.1012073156416120 32.4110047450049237 0.8098455823499836
2101 1 2.0 7.3527857444871980 33.6465692995590970 4.4885853727985285
2102 1 2.0 6.6594584572870268 36.8510044709456750 8.6713375894278162
2103 1 2.0 8.9948324909160640 36.8510044709456750 6.6819058665029205
2104 1 2.0 5.0174117108581608 33.6465692995590970 6.4780170957234269
2105 2 4.0 4.6707480672580752 35.2487868852523860 4.3866409874087822
2106 2 4.0 7.0061221008871133 35.2487868852523860 6.5799614811131732
2107 2 4.0 4.6707480672580752 32.0443517138658081 4.3866409874087822
2108 2 4.0 7.0061221008871133 32.0443517138658081 6.5799614811131732
2109 3 -2.0 6.8477358632954681 33.6465692995590970 7.0838083899081470
2110 3 -2.0 7.1645083384787576 36.8510044709456750 6.0761145723181995
2111 3 -2.0 4.8291343048497204 36.8510044709456750 4.8904878962037559
2112 3 -2.0 9.1831098969245044 33.6465692995590970 8.2694350660225915
2113 3 -2.0 5.5756628525035774 35.6154399163915016 7.3898070634631576
2114 3 -2.0 8.4365813492706501 34.8821338541132704 5.7701158987631906
2115 3 -2.0 6.1012073156416120 34.8821338541132704 5.1964865697587657
2116 3 -2.0 7.9110368861326137 35.6154399163915016 7.9634363924675799
2117 3 -2.0 8.4365813492706501 32.4110047450049237 5.7701158987631906
2118 3 -2.0 5.5756628525035774 38.0865690254998555 7.3898070634631576
2119 3 -2.0 7.9110368861326137 38.0865690254998555 7.9634363924675799
2120 3 -2.0 6.1012073156416120 32.4110047450049237 5.1964865697587657
2121 1 2.0 7.3527857444871980 33.6465692995590970 8.8752263602073107
2122 1 2.0 6.6594584572870268 36.8510044709456750 13.0579785768365984
2123 1 2.0 8.9948324909160640 36.8510044709456750 11.0685468539117036
2124 1 2.0 5.0174117108581608 33.6465692995590970 10.8646580831322090
2125 2 4.0 4.6707480672580752 35.2487868852523860 8.7732819748175643
2126 2 4.0 7.0061221008871133 35.2487868852523860 10.9666024685219554
2127 2 4.0 4.6707480672580752 32.0443517138658081 8.7732819748175643
2128 2 4.0 7.0061221008871133 32.0443517138658081 10.9666024685219554
2129 3 -2.0 6.8477358632954681 33.6465692995590970 11.4704493773169283
2130 3 -2.0 7.1645083384787576 36.8510044709456750 10.4627555597269826
2131 3 -2.0 4.8291343048497204 36.8510044709456750 9.2771288836125372
2132 3 -2.0 9.1831098969245044 33.6465692995590970 12.6560760534313737
2133 3 -2.0 5.5756628525035774 35.6154399163915016 11.7764480508719398
2134 3 -2.0 8.4365813492706501 34.8821338541132704 10.1567568861719728
2135 3 -2.0 6.1012073156416120 34.8821338541132704 9.5831275571675469
2136 3 -2.0 7.9110368861326137 35.6154399163915016 12.3500773798763621
2137 3 -2.0 8.4365813492706501 32.4110047450049237 10.1567568861719728
2138 3 -2.0 5.5756628525035774 38.0865690254998555 11.7764480508719398
2139 3 -2.0 7.9110368861326137 38.0865690254998555 12.3500773798763621
2140 3 -2.0 6.1012073156416120 32.4110047450049237 9.5831275571675469
2141 1 2.0 7.3527857444871980 33.6465692995590970 13.2618673476160929
2142 1 2.0 6.6594584572870268 36.8510044709456750 17.4446195642453823
2143 1 2.0 8.9948324909160640 36.8510044709456750 15.4551878413204857
2144 1 2.0 5.0174117108581608 33.6465692995590970 15.2512990705409912
2145 2 4.0 4.6707480672580752 35.2487868852523860 13.1599229622263465
2146 2 4.0 7.0061221008871133 35.2487868852523860 15.3532434559307376
2147 2 4.0 4.6707480672580752 32.0443517138658081 13.1599229622263465
2148 2 4.0 7.0061221008871133 32.0443517138658081 15.3532434559307376
2149 3 -2.0 6.8477358632954681 33.6465692995590970 15.8570903647257104
2150 3 -2.0 7.1645083384787576 36.8510044709456750 14.8493965471357647
2151 3 -2.0 4.8291343048497204 36.8510044709456750 13.6637698710213193
2152 3 -2.0 9.1831098969245044 33.6465692995590970 17.0427170408401558
2153 3 -2.0 5.5756628525035774 35.6154399163915016 16.1630890382807237
2154 3 -2.0 8.4365813492706501 34.8821338541132704 14.5433978735807550
2155 3 -2.0 6.1012073156416120 34.8821338541132704 13.9697685445763291
2156 3 -2.0 7.9110368861326137 35.6154399163915016 16.7367183672851425
2157 3 -2.0 8.4365813492706501 32.4110047450049237 14.5433978735807550
2158 3 -2.0 5.5756628525035774 38.0865690254998555 16.1630890382807237
2159 3 -2.0 7.9110368861326137 38.0865690254998555 16.7367183672851425
2160 3 -2.0 6.1012073156416120 32.4110047450049237 13.9697685445763291
2161 1 2.0 7.3527857444871980 33.6465692995590970 17.6485083350248750
2162 1 2.0 6.6594584572870268 36.8510044709456750 21.8312605516541645
2163 1 2.0 8.9948324909160640 36.8510044709456750 19.8418288287292661
2164 1 2.0 5.0174117108581608 33.6465692995590970 19.6379400579497734
2165 2 4.0 4.6707480672580752 35.2487868852523860 17.5465639496351287
2166 2 4.0 7.0061221008871133 35.2487868852523860 19.7398844433395197
2167 2 4.0 4.6707480672580752 32.0443517138658081 17.5465639496351287
2168 2 4.0 7.0061221008871133 32.0443517138658081 19.7398844433395197
2169 3 -2.0 6.8477358632954681 33.6465692995590970 20.2437313521344926
2170 3 -2.0 7.1645083384787576 36.8510044709456750 19.2360375345445433
2171 3 -2.0 4.8291343048497204 36.8510044709456750 18.0504108584301051
2172 3 -2.0 9.1831098969245044 33.6465692995590970 21.4293580282489380
2173 3 -2.0 5.5756628525035774 35.6154399163915016 20.5497300256895024
2174 3 -2.0 8.4365813492706501 34.8821338541132704 18.9300388609895371
2175 3 -2.0 6.1012073156416120 34.8821338541132704 18.3564095319851113
2176 3 -2.0 7.9110368861326137 35.6154399163915016 21.1233593546939282
2177 3 -2.0 8.4365813492706501 32.4110047450049237 18.9300388609895371
2178 3 -2.0 5.5756628525035774 38.0865690254998555 20.5497300256895024
2179 3 -2.0 7.9110368861326137 38.0865690254998555 21.1233593546939282
2180 3 -2.0 6.1012073156416120 32.4110047450049237 18.3564095319851113
2181 1 2.0 7.3527857444871980 33.6465692995590970 22.0351493224336572
2182 1 2.0 6.6594584572870268 36.8510044709456750 26.2179015390629466
2183 1 2.0 8.9948324909160640 36.8510044709456750 24.2284698161380483
2184 1 2.0 5.0174117108581608 33.6465692995590970 24.0245810453585555
2185 2 4.0 4.6707480672580752 35.2487868852523860 21.9332049370439108
2186 2 4.0 7.0061221008871133 35.2487868852523860 24.1265254307483019
2187 2 4.0 4.6707480672580752 32.0443517138658081 21.9332049370439108
2188 2 4.0 7.0061221008871133 32.0443517138658081 24.1265254307483019
2189 3 -2.0 6.8477358632954681 33.6465692995590970 24.6303723395432748
2190 3 -2.0 7.1645083384787576 36.8510044709456750 23.6226785219533255
2191 3 -2.0 4.8291343048497204 36.8510044709456750 22.4370518458388872
2192 3 -2.0 9.1831098969245044 33.6465692995590970 25.8159990156577202
2193 3 -2.0 5.5756628525035774 35.6154399163915016 24.9363710130982845
2194 3 -2.0 8.4365813492706501 34.8821338541132704 23.3166798483983193
2195 3 -2.0 6.1012073156416120 34.8821338541132704 22.7430505193938934
2196 3 -2.0 7.9110368861326137 35.6154399163915016 25.5100003421027104
2197 3 -2.0 8.4365813492706501 32.4110047450049237 23.3166798483983193
2198 3 -2.0 5.5756628525035774 38.0865690254998555 24.9363710130982845
2199 3 -2.0 7.9110368861326137 38.0865690254998555 25.5100003421027104
2200 3 -2.0 6.1012073156416120 32.4110047450049237 22.7430505193938934
2201 1 2.0 7.3527857444871980 33.6465692995590970 26.4217903098424394
2202 1 2.0 6.6594584572870268 36.8510044709456750 30.6045425264717288
2203 1 2.0 8.9948324909160640 36.8510044709456750 28.6151108035468305
2204 1 2.0 5.0174117108581608 33.6465692995590970 28.4112220327673377
2205 2 4.0 4.6707480672580752 35.2487868852523860 26.3198459244526930
2206 2 4.0 7.0061221008871133 35.2487868852523860 28.5131664181570841
2207 2 4.0 4.6707480672580752 32.0443517138658081 26.3198459244526930
2208 2 4.0 7.0061221008871133 32.0443517138658081 28.5131664181570841
2209 3 -2.0 6.8477358632954681 33.6465692995590970 29.0170133269520569
2210 3 -2.0 7.1645083384787576 36.8510044709456750 28.0093195093621077
2211 3 -2.0 4.8291343048497204 36.8510044709456750 26.8236928332476694
2212 3 -2.0 9.1831098969245044 33.6465692995590970 30.2026400030665023
2213 3 -2.0 5.5756628525035774 35.6154399163915016 29.3230120005070667
2214 3 -2.0 8.4365813492706501 34.8821338541132704 27.7033208358071015
2215 3 -2.0 6.1012073156416120 34.8821338541132704 27.1296915068026756
2216 3 -2.0 7.9110368861326137 35.6154399163915016 29.8966413295114926
2217 3 -2.0 8.4365813492706501 32.4110047450049237 27.7033208358071015
2218 3 -2.0 5.5756628525035774 38.0865690254998555 29.3230120005070667
2219 3 -2.0 7.9110368861326137 38.0865690254998555 29.8966413295114926
2220 3 -2.0 6.1012073156416120 32.4110047450049237 27.1296915068026756
2221 1 2.0 7.3527857444871980 33.6465692995590970 30.8084312972512215
2222 1 2.0 6.6594584572870268 36.8510044709456750 34.9911835138805074
2223 1 2.0 8.9948324909160640 36.8510044709456750 33.0017517909556162
2224 1 2.0 5.0174117108581608 33.6465692995590970 32.7978630201761163
2225 2 4.0 4.6707480672580752 35.2487868852523860 30.7064869118614752
2226 2 4.0 7.0061221008871133 35.2487868852523860 32.8998074055658662
2227 2 4.0 4.6707480672580752 32.0443517138658081 30.7064869118614752
2228 2 4.0 7.0061221008871133 32.0443517138658081 32.8998074055658662
2229 3 -2.0 6.8477358632954681 33.6465692995590970 33.4036543143608355
2230 3 -2.0 7.1645083384787576 36.8510044709456750 32.3959604967708898
2231 3 -2.0 4.8291343048497204 36.8510044709456750 31.2103338206564516
2232 3 -2.0 9.1831098969245044 33.6465692995590970 34.5892809904752880
2233 3 -2.0 5.5756628525035774 35.6154399163915016 33.7096529879158524
2234 3 -2.0 8.4365813492706501 34.8821338541132704 32.0899618232158801
2235 3 -2.0 6.1012073156416120 34.8821338541132704 31.5163324942114578
2236 3 -2.0 7.9110368861326137 35.6154399163915016 34.2832823169202712
2237 3 -2.0 8.4365813492706501 32.4110047450049237 32.0899618232158801
2238 3 -2.0 5.5756628525035774 38.0865690254998555 33.7096529879158524
2239 3 -2.0 7.9110368861326137 38.0865690254998555 34.2832823169202712
2240 3 -2.0 6.1012073156416120 32.4110047450049237 31.5163324942114578
2241 1 2.0 7.3527857444871980 40.0554396423322601 0.1019443853897463
2242 1 2.0 6.6594584572870268 43.2598748137188380 4.2846966020190349
2243 1 2.0 8.9948324909160640 43.2598748137188380 2.2952648790941383
2244 1 2.0 5.0174117108581608 40.0554396423322601 2.0913761083146447
2245 2 4.0 4.6707480672580752 41.6576572280255490 0.0000000000000000
2246 2 4.0 7.0061221008871133 41.6576572280255490 2.1933204937043911
2247 2 4.0 4.6707480672580752 38.4532220566389640 0.0000000000000000
2248 2 4.0 7.0061221008871133 38.4532220566389640 2.1933204937043911
2249 3 -2.0 6.8477358632954681 40.0554396423322601 2.6971674024993644
2250 3 -2.0 7.1645083384787576 43.2598748137188380 1.6894735849094176
2251 3 -2.0 4.8291343048497204 43.2598748137188380 0.5038469087949736
2252 3 -2.0 9.1831098969245044 40.0554396423322601 3.8827940786138089
2253 3 -2.0 5.5756628525035774 42.0243102591646647 3.0031660760543750
2254 3 -2.0 8.4365813492706501 41.2910041968864334 1.3834749113544080
2255 3 -2.0 6.1012073156416120 41.2910041968864334 0.8098455823499836
2256 3 -2.0 7.9110368861326137 42.0243102591646647 3.5767954050587982
2257 3 -2.0 8.4365813492706501 38.8198750877780796 1.3834749113544080
2258 3 -2.0 5.5756628525035774 44.4954393682730114 3.0031660760543750
2259 3 -2.0 7.9110368861326137 44.4954393682730114 3.5767954050587982
2260 3 -2.0 6.1012073156416120 38.8198750877780796 0.8098455823499836
2261 1 2.0 7.3527857444871980 40.0554396423322601 4.4885853727985285
2262 1 2.0 6.6594584572870268 43.2598748137188380 8.6713375894278162
2263 1 2.0 8.9948324909160640 43.2598748137188380 6.6819058665029205
2264 1 2.0 5.0174117108581608 40.0554396423322601 6.4780170957234269
2265 2 4.0 4.6707480672580752 41.6576572280255490 4.3866409874087822
2266 2 4.0 7.0061221008871133 41.6576572280255490 6.5799614811131732
2267 2 4.0 4.6707480672580752 38.4532220566389640 4.3866409874087822
2268 2 4.0 7.0061221008871133 38.4532220566389640 6.5799614811131732
2269 3 -2.0 6.8477358632954681 40.0554396423322601 7.0838083899081470
2270 3 -2.0 7.1645083384787576 43.2598748137188380 6.0761145723181995
2271 3 -2.0 4.8291343048497204 43.2598748137188380 4.8904878962037559
2272 3 -2.0 9.1831098969245044 40.0554396423322601 8.2694350660225915
2273 3 -2.0 5.5756628525035774 42.0243102591646647 7.3898070634631576
2274 3 -2.0 8.4365813492706501 41.2910041968864334 5.7701158987631906
2275 3 -2.0 6.1012073156416120 41.2910041968864334 5.1964865697587657
2276 3 -2.0 7.9110368861326137 42.0243102591646647 7.9634363924675799
2277 3 -2.0 8.4365813492706501 38.8198750877780796 5.7701158987631906
2278 3 -2.0 5.5756628525035774 44.4954393682730114 7.3898070634631576
2279 3 -2.0 7.9110368861326137 44.4954393682730114 7.9634363924675799
2280 3 -2.0 6.1012073156416120 38.8198750877780796 5.1964865697587657
2281 1 2.0 7.3527857444871980 40.0554396423322601 8.8752263602073107
2282 1 2.0 6.6594584572870268 43.2598748137188380 13.0579785768365984
2283 1 2.0 8.9948324909160640 43.2598748137188380 11.0685468539117036
2284 1 2.0 5.0174117108581608 40.0554396423322601 10.8646580831322090
2285 2 4.0 4.6707480672580752 41.6576572280255490 8.7732819748175643
2286 2 4.0 7.0061221008871133 41.6576572280255490 10.9666024685219554
2287 2 4.0 4.6707480672580752 38.4532220566389640 8.7732819748175643
2288 2 4.0 7.0061221008871133 38.4532220566389640 10.9666024685219554
2289 3 -2.0 6.8477358632954681 40.0554396423322601 11.4704493773169283
2290 3 -2.0 7.1645083384787576 43.2598748137188380 10.4627555597269826
2291 3 -2.0 4.8291343048497204 43.2598748137188380 9.2771288836125372
2292 3 -2.0 9.1831098969245044 40.0554396423322601 12.6560760534313737
2293 3 -2.0 5.5756628525035774 42.0243102591646647 11.7764480508719398
2294 3 -2.0 8.4365813492706501 41.2910041968864334 10.1567568861719728
2295 3 -2.0 6.1012073156416120 41.2910041968864334 9.5831275571675469
2296 3 -2.0 7.9110368861326137 42.0243102591646647 12.3500773798763621
2297 3 -2.0 8.4365813492706501 38.8198750877780796 10.1567568861719728
2298 3 -2.0 5.5756628525035774 44.4954393682730114 11.7764480508719398
2299 3 -2.0 7.9110368861326137 44.4954393682730114 12.3500773798763621
2300 3 -2.0 6.1012073156416120 38.8198750877780796 9.5831275571675469
2301 1 2.0 7.3527857444871980 40.0554396423322601 13.2618673476160929
2302 1 2.0 6.6594584572870268 43.2598748137188380 17.4446195642453823
2303 1 2.0 8.9948324909160640 43.2598748137188380 15.4551878413204857
2304 1 2.0 5.0174117108581608 40.0554396423322601 15.2512990705409912
2305 2 4.0 4.6707480672580752 41.6576572280255490 13.1599229622263465
2306 2 4.0 7.0061221008871133 41.6576572280255490 15.3532434559307376
2307 2 4.0 4.6707480672580752 38.4532220566389640 13.1599229622263465
2308 2 4.0 7.0061221008871133 38.4532220566389640 15.3532434559307376
2309 3 -2.0 6.8477358632954681 40.0554396423322601 15.8570903647257104
2310 3 -2.0 7.1645083384787576 43.2598748137188380 14.8493965471357647
2311 3 -2.0 4.8291343048497204 43.2598748137188380 13.6637698710213193
2312 3 -2.0 9.1831098969245044 40.0554396423322601 17.0427170408401558
2313 3 -2.0 5.5756628525035774 42.0243102591646647 16.1630890382807237
2314 3 -2.0 8.4365813492706501 41.2910041968864334 14.5433978735807550
2315 3 -2.0 6.1012073156416120 41.2910041968864334 13.9697685445763291
2316 3 -2.0 7.9110368861326137 42.0243102591646647 16.7367183672851425
2317 3 -2.0 8.4365813492706501 38.8198750877780796 14.5433978735807550
2318 3 -2.0 5.5756628525035774 44.4954393682730114 16.1630890382807237
2319 3 -2.0 7.9110368861326137 44.4954393682730114 16.7367183672851425
2320 3 -2.0 6.1012073156416120 38.8198750877780796 13.9697685445763291
2321 1 2.0 7.3527857444871980 40.0554396423322601 17.6485083350248750
2322 1 2.0 6.6594584572870268 43.2598748137188380 21.8312605516541645
2323 1 2.0 8.9948324909160640 43.2598748137188380 19.8418288287292661
2324 1 2.0 5.0174117108581608 40.0554396423322601 19.6379400579497734
2325 2 4.0 4.6707480672580752 41.6576572280255490 17.5465639496351287
2326 2 4.0 7.0061221008871133 41.6576572280255490 19.7398844433395197
2327 2 4.0 4.6707480672580752 38.4532220566389640 17.5465639496351287
2328 2 4.0 7.0061221008871133 38.4532220566389640 19.7398844433395197
2329 3 -2.0 6.8477358632954681 40.0554396423322601 20.2437313521344926
2330 3 -2.0 7.1645083384787576 43.2598748137188380 19.2360375345445433
2331 3 -2.0 4.8291343048497204 43.2598748137188380 18.0504108584301051
2332 3 -2.0 9.1831098969245044 40.0554396423322601 21.4293580282489380
2333 3 -2.0 5.5756628525035774 42.0243102591646647 20.5497300256895024
2334 3 -2.0 8.4365813492706501 41.2910041968864334 18.9300388609895371
2335 3 -2.0 6.1012073156416120 41.2910041968864334 18.3564095319851113
2336 3 -2.0 7.9110368861326137 42.0243102591646647 21.1233593546939282
2337 3 -2.0 8.4365813492706501 38.8198750877780796 18.9300388609895371
2338 3 -2.0 5.5756628525035774 44.4954393682730114 20.5497300256895024
2339 3 -2.0 7.9110368861326137 44.4954393682730114 21.1233593546939282
2340 3 -2.0 6.1012073156416120 38.8198750877780796 18.3564095319851113
2341 1 2.0 7.3527857444871980 40.0554396423322601 22.0351493224336572
2342 1 2.0 6.6594584572870268 43.2598748137188380 26.2179015390629466
2343 1 2.0 8.9948324909160640 43.2598748137188380 24.2284698161380483
2344 1 2.0 5.0174117108581608 40.0554396423322601 24.0245810453585555
2345 2 4.0 4.6707480672580752 41.6576572280255490 21.9332049370439108
2346 2 4.0 7.0061221008871133 41.6576572280255490 24.1265254307483019
2347 2 4.0 4.6707480672580752 38.4532220566389640 21.9332049370439108
2348 2 4.0 7.0061221008871133 38.4532220566389640 24.1265254307483019
2349 3 -2.0 6.8477358632954681 40.0554396423322601 24.6303723395432748
2350 3 -2.0 7.1645083384787576 43.2598748137188380 23.6226785219533255
2351 3 -2.0 4.8291343048497204 43.2598748137188380 22.4370518458388872
2352 3 -2.0 9.1831098969245044 40.0554396423322601 25.8159990156577202
2353 3 -2.0 5.5756628525035774 42.0243102591646647 24.9363710130982845
2354 3 -2.0 8.4365813492706501 41.2910041968864334 23.3166798483983193
2355 3 -2.0 6.1012073156416120 41.2910041968864334 22.7430505193938934
2356 3 -2.0 7.9110368861326137 42.0243102591646647 25.5100003421027104
2357 3 -2.0 8.4365813492706501 38.8198750877780796 23.3166798483983193
2358 3 -2.0 5.5756628525035774 44.4954393682730114 24.9363710130982845
2359 3 -2.0 7.9110368861326137 44.4954393682730114 25.5100003421027104
2360 3 -2.0 6.1012073156416120 38.8198750877780796 22.7430505193938934
2361 1 2.0 7.3527857444871980 40.0554396423322601 26.4217903098424394
2362 1 2.0 6.6594584572870268 43.2598748137188380 30.6045425264717288
2363 1 2.0 8.9948324909160640 43.2598748137188380 28.6151108035468305
2364 1 2.0 5.0174117108581608 40.0554396423322601 28.4112220327673377
2365 2 4.0 4.6707480672580752 41.6576572280255490 26.3198459244526930
2366 2 4.0 7.0061221008871133 41.6576572280255490 28.5131664181570841
2367 2 4.0 4.6707480672580752 38.4532220566389640 26.3198459244526930
2368 2 4.0 7.0061221008871133 38.4532220566389640 28.5131664181570841
2369 3 -2.0 6.8477358632954681 40.0554396423322601 29.0170133269520569
2370 3 -2.0 7.1645083384787576 43.2598748137188380 28.0093195093621077
2371 3 -2.0 4.8291343048497204 43.2598748137188380 26.8236928332476694
2372 3 -2.0 9.1831098969245044 40.0554396423322601 30.2026400030665023
2373 3 -2.0 5.5756628525035774 42.0243102591646647 29.3230120005070667
2374 3 -2.0 8.4365813492706501 41.2910041968864334 27.7033208358071015
2375 3 -2.0 6.1012073156416120 41.2910041968864334 27.1296915068026756
2376 3 -2.0 7.9110368861326137 42.0243102591646647 29.8966413295114926
2377 3 -2.0 8.4365813492706501 38.8198750877780796 27.7033208358071015
2378 3 -2.0 5.5756628525035774 44.4954393682730114 29.3230120005070667
2379 3 -2.0 7.9110368861326137 44.4954393682730114 29.8966413295114926
2380 3 -2.0 6.1012073156416120 38.8198750877780796 27.1296915068026756
2381 1 2.0 7.3527857444871980 40.0554396423322601 30.8084312972512215
2382 1 2.0 6.6594584572870268 43.2598748137188380 34.9911835138805074
2383 1 2.0 8.9948324909160640 43.2598748137188380 33.0017517909556162
2384 1 2.0 5.0174117108581608 40.0554396423322601 32.7978630201761163
2385 2 4.0 4.6707480672580752 41.6576572280255490 30.7064869118614752
2386 2 4.0 7.0061221008871133 41.6576572280255490 32.8998074055658662
2387 2 4.0 4.6707480672580752 38.4532220566389640 30.7064869118614752
2388 2 4.0 7.0061221008871133 38.4532220566389640 32.8998074055658662
2389 3 -2.0 6.8477358632954681 40.0554396423322601 33.4036543143608355
2390 3 -2.0 7.1645083384787576 43.2598748137188380 32.3959604967708898
2391 3 -2.0 4.8291343048497204 43.2598748137188380 31.2103338206564516
2392 3 -2.0 9.1831098969245044 40.0554396423322601 34.5892809904752880
2393 3 -2.0 5.5756628525035774 42.0243102591646647 33.7096529879158524
2394 3 -2.0 8.4365813492706501 41.2910041968864334 32.0899618232158801
2395 3 -2.0 6.1012073156416120 41.2910041968864334 31.5163324942114578
2396 3 -2.0 7.9110368861326137 42.0243102591646647 34.2832823169202712
2397 3 -2.0 8.4365813492706501 38.8198750877780796 32.0899618232158801
2398 3 -2.0 5.5756628525035774 44.4954393682730114 33.7096529879158524
2399 3 -2.0 7.9110368861326137 44.4954393682730114 34.2832823169202712
2400 3 -2.0 6.1012073156416120 38.8198750877780796 31.5163324942114578
2401 1 2.0 7.3527857444871980 46.4643099851054160 0.1019443853897463
2402 1 2.0 6.6594584572870268 49.6687451564920011 4.2846966020190349
2403 1 2.0 8.9948324909160640 49.6687451564920011 2.2952648790941383
2404 1 2.0 5.0174117108581608 46.4643099851054160 2.0913761083146447
2405 2 4.0 4.6707480672580752 48.0665275707987121 0.0000000000000000
2406 2 4.0 7.0061221008871133 48.0665275707987121 2.1933204937043911
2407 2 4.0 4.6707480672580752 44.8620923994121270 0.0000000000000000
2408 2 4.0 7.0061221008871133 44.8620923994121270 2.1933204937043911
2409 3 -2.0 6.8477358632954681 46.4643099851054160 2.6971674024993644
2410 3 -2.0 7.1645083384787576 49.6687451564920011 1.6894735849094176
2411 3 -2.0 4.8291343048497204 49.6687451564920011 0.5038469087949736
2412 3 -2.0 9.1831098969245044 46.4643099851054160 3.8827940786138089
2413 3 -2.0 5.5756628525035774 48.4331806019378206 3.0031660760543750
2414 3 -2.0 8.4365813492706501 47.6998745396595965 1.3834749113544080
2415 3 -2.0 6.1012073156416120 47.6998745396595965 0.8098455823499836
2416 3 -2.0 7.9110368861326137 48.4331806019378206 3.5767954050587982
2417 3 -2.0 8.4365813492706501 45.2287454305512426 1.3834749113544080
2418 3 -2.0 5.5756628525035774 50.9043097110461744 3.0031660760543750
2419 3 -2.0 7.9110368861326137 50.9043097110461744 3.5767954050587982
2420 3 -2.0 6.1012073156416120 45.2287454305512426 0.8098455823499836
2421 1 2.0 7.3527857444871980 46.4643099851054160 4.4885853727985285
2422 1 2.0 6.6594584572870268 49.6687451564920011 8.6713375894278162
2423 1 2.0 8.9948324909160640 49.6687451564920011 6.6819058665029205
2424 1 2.0 5.0174117108581608 46.4643099851054160 6.4780170957234269
2425 2 4.0 4.6707480672580752 48.0665275707987121 4.3866409874087822
2426 2 4.0 7.0061221008871133 48.0665275707987121 6.5799614811131732
2427 2 4.0 4.6707480672580752 44.8620923994121270 4.3866409874087822
2428 2 4.0 7.0061221008871133 44.8620923994121270 6.5799614811131732
2429 3 -2.0 6.8477358632954681 46.4643099851054160 7.0838083899081470
2430 3 -2.0 7.1645083384787576 49.6687451564920011 6.0761145723181995
2431 3 -2.0 4.8291343048497204 49.6687451564920011 4.8904878962037559
2432 3 -2.0 9.1831098969245044 46.4643099851054160 8.2694350660225915
2433 3 -2.0 5.5756628525035774 48.4331806019378206 7.3898070634631576
2434 3 -2.0 8.4365813492706501 47.6998745396595965 5.7701158987631906
2435 3 -2.0 6.1012073156416120 47.6998745396595965 5.1964865697587657
2436 3 -2.0 7.9110368861326137 48.4331806019378206 7.9634363924675799
2437 3 -2.0 8.4365813492706501 45.2287454305512426 5.7701158987631906
2438 3 -2.0 5.5756628525035774 50.9043097110461744 7.3898070634631576
2439 3 -2.0 7.9110368861326137 50.9043097110461744 7.9634363924675799
2440 3 -2.0 6.1012073156416120 45.2287454305512426 5.1964865697587657
2441 1 2.0 7.3527857444871980 46.4643099851054160 8.8752263602073107
2442 1 2.0 6.6594584572870268 49.6687451564920011 13.0579785768365984
2443 1 2.0 8.9948324909160640 49.6687451564920011 11.0685468539117036
2444 1 2.0 5.0174117108581608 46.4643099851054160 10.8646580831322090
2445 2 4.0 4.6707480672580752 48.0665275707987121 8.7732819748175643
2446 2 4.0 7.0061221008871133 48.0665275707987121 10.9666024685219554
2447 2 4.0 4.6707480672580752 44.8620923994121270 8.7732819748175643
2448 2 4.0 7.0061221008871133 44.8620923994121270 10.9666024685219554
2449 3 -2.0 6.8477358632954681 46.4643099851054160 11.4704493773169283
2450 3 -2.0 7.1645083384787576 49.6687451564920011 10.4627555597269826
2451 3 -2.0 4.8291343048497204 49.6687451564920011 9.2771288836125372
2452 3 -2.0 9.1831098969245044 46.4643099851054160 12.6560760534313737
2453 3 -2.0 5.5756628525035774 48.4331806019378206 11.7764480508719398
2454 3 -2.0 8.4365813492706501 47.6998745396595965 10.1567568861719728
2455 3 -2.0 6.1012073156416120 47.6998745396595965 9.5831275571675469
2456 3 -2.0 7.9110368861326137 48.4331806019378206 12.3500773798763621
2457 3 -2.0 8.4365813492706501 45.2287454305512426 10.1567568861719728
2458 3 -2.0 5.5756628525035774 50.9043097110461744 11.7764480508719398
2459 3 -2.0 7.9110368861326137 50.9043097110461744 12.3500773798763621
2460 3 -2.0 6.1012073156416120 45.2287454305512426 9.5831275571675469
2461 1 2.0 7.3527857444871980 46.4643099851054160 13.2618673476160929
2462 1 2.0 6.6594584572870268 49.6687451564920011 17.4446195642453823
2463 1 2.0 8.9948324909160640 49.6687451564920011 15.4551878413204857
2464 1 2.0 5.0174117108581608 46.4643099851054160 15.2512990705409912
2465 2 4.0 4.6707480672580752 48.0665275707987121 13.1599229622263465
2466 2 4.0 7.0061221008871133 48.0665275707987121 15.3532434559307376
2467 2 4.0 4.6707480672580752 44.8620923994121270 13.1599229622263465
2468 2 4.0 7.0061221008871133 44.8620923994121270 15.3532434559307376
2469 3 -2.0 6.8477358632954681 46.4643099851054160 15.8570903647257104
2470 3 -2.0 7.1645083384787576 49.6687451564920011 14.8493965471357647
2471 3 -2.0 4.8291343048497204 49.6687451564920011 13.6637698710213193
2472 3 -2.0 9.1831098969245044 46.4643099851054160 17.0427170408401558
2473 3 -2.0 5.5756628525035774 48.4331806019378206 16.1630890382807237
2474 3 -2.0 8.4365813492706501 47.6998745396595965 14.5433978735807550
2475 3 -2.0 6.1012073156416120 47.6998745396595965 13.9697685445763291
2476 3 -2.0 7.9110368861326137 48.4331806019378206 16.7367183672851425
2477 3 -2.0 8.4365813492706501 45.2287454305512426 14.5433978735807550
2478 3 -2.0 5.5756628525035774 50.9043097110461744 16.1630890382807237
2479 3 -2.0 7.9110368861326137 50.9043097110461744 16.7367183672851425
2480 3 -2.0 6.1012073156416120 45.2287454305512426 13.9697685445763291
2481 1 2.0 7.3527857444871980 46.4643099851054160 17.6485083350248750
2482 1 2.0 6.6594584572870268 49.6687451564920011 21.8312605516541645
2483 1 2.0 8.9948324909160640 49.6687451564920011 19.8418288287292661
2484 1 2.0 5.0174117108581608 46.4643099851054160 19.6379400579497734
2485 2 4.0 4.6707480672580752 48.0665275707987121 17.5465639496351287
2486 2 4.0 7.0061221008871133 48.0665275707987121 19.7398844433395197
2487 2 4.0 4.6707480672580752 44.8620923994121270 17.5465639496351287
2488 2 4.0 7.0061221008871133 44.8620923994121270 19.7398844433395197
2489 3 -2.0 6.8477358632954681 46.4643099851054160 20.2437313521344926
2490 3 -2.0 7.1645083384787576 49.6687451564920011 19.2360375345445433
2491 3 -2.0 4.8291343048497204 49.6687451564920011 18.0504108584301051
2492 3 -2.0 9.1831098969245044 46.4643099851054160 21.4293580282489380
2493 3 -2.0 5.5756628525035774 48.4331806019378206 20.5497300256895024
2494 3 -2.0 8.4365813492706501 47.6998745396595965 18.9300388609895371
2495 3 -2.0 6.1012073156416120 47.6998745396595965 18.3564095319851113
2496 3 -2.0 7.9110368861326137 48.4331806019378206 21.1233593546939282
2497 3 -2.0 8.4365813492706501 45.2287454305512426 18.9300388609895371
2498 3 -2.0 5.5756628525035774 50.9043097110461744 20.5497300256895024
2499 3 -2.0 7.9110368861326137 50.9043097110461744 21.1233593546939282
2500 3 -2.0 6.1012073156416120 45.2287454305512426 18.3564095319851113
2501 1 2.0 7.3527857444871980 46.4643099851054160 22.0351493224336572
2502 1 2.0 6.6594584572870268 49.6687451564920011 26.2179015390629466
2503 1 2.0 8.9948324909160640 49.6687451564920011 24.2284698161380483
2504 1 2.0 5.0174117108581608 46.4643099851054160 24.0245810453585555
2505 2 4.0 4.6707480672580752 48.0665275707987121 21.9332049370439108
2506 2 4.0 7.0061221008871133 48.0665275707987121 24.1265254307483019
2507 2 4.0 4.6707480672580752 44.8620923994121270 21.9332049370439108
2508 2 4.0 7.0061221008871133 44.8620923994121270 24.1265254307483019
2509 3 -2.0 6.8477358632954681 46.4643099851054160 24.6303723395432748
2510 3 -2.0 7.1645083384787576 49.6687451564920011 23.6226785219533255
2511 3 -2.0 4.8291343048497204 49.6687451564920011 22.4370518458388872
2512 3 -2.0 9.1831098969245044 46.4643099851054160 25.8159990156577202
2513 3 -2.0 5.5756628525035774 48.4331806019378206 24.9363710130982845
2514 3 -2.0 8.4365813492706501 47.6998745396595965 23.3166798483983193
2515 3 -2.0 6.1012073156416120 47.6998745396595965 22.7430505193938934
2516 3 -2.0 7.9110368861326137 48.4331806019378206 25.5100003421027104
2517 3 -2.0 8.4365813492706501 45.2287454305512426 23.3166798483983193
2518 3 -2.0 5.5756628525035774 50.9043097110461744 24.9363710130982845
2519 3 -2.0 7.9110368861326137 50.9043097110461744 25.5100003421027104
2520 3 -2.0 6.1012073156416120 45.2287454305512426 22.7430505193938934
2521 1 2.0 7.3527857444871980 46.4643099851054160 26.4217903098424394
2522 1 2.0 6.6594584572870268 49.6687451564920011 30.6045425264717288
2523 1 2.0 8.9948324909160640 49.6687451564920011 28.6151108035468305
2524 1 2.0 5.0174117108581608 46.4643099851054160 28.4112220327673377
2525 2 4.0 4.6707480672580752 48.0665275707987121 26.3198459244526930
2526 2 4.0 7.0061221008871133 48.0665275707987121 28.5131664181570841
2527 2 4.0 4.6707480672580752 44.8620923994121270 26.3198459244526930
2528 2 4.0 7.0061221008871133 44.8620923994121270 28.5131664181570841
2529 3 -2.0 6.8477358632954681 46.4643099851054160 29.0170133269520569
2530 3 -2.0 7.1645083384787576 49.6687451564920011 28.0093195093621077
2531 3 -2.0 4.8291343048497204 49.6687451564920011 26.8236928332476694
2532 3 -2.0 9.1831098969245044 46.4643099851054160 30.2026400030665023
2533 3 -2.0 5.5756628525035774 48.4331806019378206 29.3230120005070667
2534 3 -2.0 8.4365813492706501 47.6998745396595965 27.7033208358071015
2535 3 -2.0 6.1012073156416120 47.6998745396595965 27.1296915068026756
2536 3 -2.0 7.9110368861326137 48.4331806019378206 29.8966413295114926
2537 3 -2.0 8.4365813492706501 45.2287454305512426 27.7033208358071015
2538 3 -2.0 5.5756628525035774 50.9043097110461744 29.3230120005070667
2539 3 -2.0 7.9110368861326137 50.9043097110461744 29.8966413295114926
2540 3 -2.0 6.1012073156416120 45.2287454305512426 27.1296915068026756
2541 1 2.0 7.3527857444871980 46.4643099851054160 30.8084312972512215
2542 1 2.0 6.6594584572870268 49.6687451564920011 34.9911835138805074
2543 1 2.0 8.9948324909160640 49.6687451564920011 33.0017517909556162
2544 1 2.0 5.0174117108581608 46.4643099851054160 32.7978630201761163
2545 2 4.0 4.6707480672580752 48.0665275707987121 30.7064869118614752
2546 2 4.0 7.0061221008871133 48.0665275707987121 32.8998074055658662
2547 2 4.0 4.6707480672580752 44.8620923994121270 30.7064869118614752
2548 2 4.0 7.0061221008871133 44.8620923994121270 32.8998074055658662
2549 3 -2.0 6.8477358632954681 46.4643099851054160 33.4036543143608355
2550 3 -2.0 7.1645083384787576 49.6687451564920011 32.3959604967708898
2551 3 -2.0 4.8291343048497204 49.6687451564920011 31.2103338206564516
2552 3 -2.0 9.1831098969245044 46.4643099851054160 34.5892809904752880
2553 3 -2.0 5.5756628525035774 48.4331806019378206 33.7096529879158524
2554 3 -2.0 8.4365813492706501 47.6998745396595965 32.0899618232158801
2555 3 -2.0 6.1012073156416120 47.6998745396595965 31.5163324942114578
2556 3 -2.0 7.9110368861326137 48.4331806019378206 34.2832823169202712
2557 3 -2.0 8.4365813492706501 45.2287454305512426 32.0899618232158801
2558 3 -2.0 5.5756628525035774 50.9043097110461744 33.7096529879158524
2559 3 -2.0 7.9110368861326137 50.9043097110461744 34.2832823169202712
2560 3 -2.0 6.1012073156416120 45.2287454305512426 31.5163324942114578
2561 1 2.0 12.0235338117452724 1.6022175856932903 0.1019443853897463
2562 1 2.0 11.3302065245451011 4.8066527570798705 4.2846966020190349
2563 1 2.0 13.6655805581741383 4.8066527570798705 2.2952648790941383
2564 1 2.0 9.6881597781162352 1.6022175856932903 2.0913761083146447
2565 2 4.0 9.3414961345161505 3.2044351713865806 0.0000000000000000
2566 2 4.0 11.6768701681451876 3.2044351713865806 2.1933204937043911
2567 2 4.0 9.3414961345161505 0.0000000000000000 0.0000000000000000
2568 2 4.0 11.6768701681451876 0.0000000000000000 2.1933204937043911
2569 3 -2.0 11.5184839305535434 1.6022175856932903 2.6971674024993644
2570 3 -2.0 11.8352564057368337 4.8066527570798705 1.6894735849094176
2571 3 -2.0 9.4998823721077947 4.8066527570798705 0.5038469087949736
2572 3 -2.0 13.8538579641825805 1.6022175856932903 3.8827940786138089
2573 3 -2.0 10.2464109197616509 3.5710882025256927 3.0031660760543750
2574 3 -2.0 13.1073294165287244 2.8377821402474677 1.3834749113544080
2575 3 -2.0 10.7719553828996872 2.8377821402474677 0.8098455823499836
2576 3 -2.0 12.5817849533906898 3.5710882025256927 3.5767954050587982
2577 3 -2.0 13.1073294165287244 0.3666530311391118 1.3834749113544080
2578 3 -2.0 10.2464109197616509 6.0422173116340492 3.0031660760543750
2579 3 -2.0 12.5817849533906898 6.0422173116340492 3.5767954050587982
2580 3 -2.0 10.7719553828996872 0.3666530311391118 0.8098455823499836
2581 1 2.0 12.0235338117452724 1.6022175856932903 4.4885853727985285
2582 1 2.0 11.3302065245451011 4.8066527570798705 8.6713375894278162
2583 1 2.0 13.6655805581741383 4.8066527570798705 6.6819058665029205
2584 1 2.0 9.6881597781162352 1.6022175856932903 6.4780170957234269
2585 2 4.0 9.3414961345161505 3.2044351713865806 4.3866409874087822
2586 2 4.0 11.6768701681451876 3.2044351713865806 6.5799614811131732
2587 2 4.0 9.3414961345161505 0.0000000000000000 4.3866409874087822
2588 2 4.0 11.6768701681451876 0.0000000000000000 6.5799614811131732
2589 3 -2.0 11.5184839305535434 1.6022175856932903 7.0838083899081470
2590 3 -2.0 11.8352564057368337 4.8066527570798705 6.0761145723181995
2591 3 -2.0 9.4998823721077947 4.8066527570798705 4.8904878962037559
2592 3 -2.0 13.8538579641825805 1.6022175856932903 8.2694350660225915
2593 3 -2.0 10.2464109197616509 3.5710882025256927 7.3898070634631576
2594 3 -2.0 13.1073294165287244 2.8377821402474677 5.7701158987631906
2595 3 -2.0 10.7719553828996872 2.8377821402474677 5.1964865697587657
2596 3 -2.0 12.5817849533906898 3.5710882025256927 7.9634363924675799
2597 3 -2.0 13.1073294165287244 0.3666530311391118 5.7701158987631906
2598 3 -2.0 10.2464109197616509 6.0422173116340492 7.3898070634631576
2599 3 -2.0 12.5817849533906898 6.0422173116340492 7.9634363924675799
2600 3 -2.0 10.7719553828996872 0.3666530311391118 5.1964865697587657
2601 1 2.0 12.0235338117452724 1.6022175856932903 8.8752263602073107
2602 1 2.0 11.3302065245451011 4.8066527570798705 13.0579785768365984
2603 1 2.0 13.6655805581741383 4.8066527570798705 11.0685468539117036
2604 1 2.0 9.6881597781162352 1.6022175856932903 10.8646580831322090
2605 2 4.0 9.3414961345161505 3.2044351713865806 8.7732819748175643
2606 2 4.0 11.6768701681451876 3.2044351713865806 10.9666024685219554
2607 2 4.0 9.3414961345161505 0.0000000000000000 8.7732819748175643
2608 2 4.0 11.6768701681451876 0.0000000000000000 10.9666024685219554
2609 3 -2.0 11.5184839305535434 1.6022175856932903 11.4704493773169283
2610 3 -2.0 11.8352564057368337 4.8066527570798705 10.4627555597269826
2611 3 -2.0 9.4998823721077947 4.8066527570798705 9.2771288836125372
2612 3 -2.0 13.8538579641825805 1.6022175856932903 12.6560760534313737
2613 3 -2.0 10.2464109197616509 3.5710882025256927 11.7764480508719398
2614 3 -2.0 13.1073294165287244 2.8377821402474677 10.1567568861719728
2615 3 -2.0 10.7719553828996872 2.8377821402474677 9.5831275571675469
2616 3 -2.0 12.5817849533906898 3.5710882025256927 12.3500773798763621
2617 3 -2.0 13.1073294165287244 0.3666530311391118 10.1567568861719728
2618 3 -2.0 10.2464109197616509 6.0422173116340492 11.7764480508719398
2619 3 -2.0 12.5817849533906898 6.0422173116340492 12.3500773798763621
2620 3 -2.0 10.7719553828996872 0.3666530311391118 9.5831275571675469
2621 1 2.0 12.0235338117452724 1.6022175856932903 13.2618673476160929
2622 1 2.0 11.3302065245451011 4.8066527570798705 17.4446195642453823
2623 1 2.0 13.6655805581741383 4.8066527570798705 15.4551878413204857
2624 1 2.0 9.6881597781162352 1.6022175856932903 15.2512990705409912
2625 2 4.0 9.3414961345161505 3.2044351713865806 13.1599229622263465
2626 2 4.0 11.6768701681451876 3.2044351713865806 15.3532434559307376
2627 2 4.0 9.3414961345161505 0.0000000000000000 13.1599229622263465
2628 2 4.0 11.6768701681451876 0.0000000000000000 15.3532434559307376
2629 3 -2.0 11.5184839305535434 1.6022175856932903 15.8570903647257104
2630 3 -2.0 11.8352564057368337 4.8066527570798705 14.8493965471357647
2631 3 -2.0 9.4998823721077947 4.8066527570798705 13.6637698710213193
2632 3 -2.0 13.8538579641825805 1.6022175856932903 17.0427170408401558
2633 3 -2.0 10.2464109197616509 3.5710882025256927 16.1630890382807237
2634 3 -2.0 13.1073294165287244 2.8377821402474677 14.5433978735807550
2635 3 -2.0 10.7719553828996872 2.8377821402474677 13.9697685445763291
2636 3 -2.0 12.5817849533906898 3.5710882025256927 16.7367183672851425
2637 3 -2.0 13.1073294165287244 0.3666530311391118 14.5433978735807550
2638 3 -2.0 10.2464109197616509 6.0422173116340492 16.1630890382807237
2639 3 -2.0 12.5817849533906898 6.0422173116340492 16.7367183672851425
2640 3 -2.0 10.7719553828996872 0.3666530311391118 13.9697685445763291
2641 1 2.0 12.0235338117452724 1.6022175856932903 17.6485083350248750
2642 1 2.0 11.3302065245451011 4.8066527570798705 21.8312605516541645
2643 1 2.0 13.6655805581741383 4.8066527570798705 19.8418288287292661
2644 1 2.0 9.6881597781162352 1.6022175856932903 19.6379400579497734
2645 2 4.0 9.3414961345161505 3.2044351713865806 17.5465639496351287
2646 2 4.0 11.6768701681451876 3.2044351713865806 19.7398844433395197
2647 2 4.0 9.3414961345161505 0.0000000000000000 17.5465639496351287
2648 2 4.0 11.6768701681451876 0.0000000000000000 19.7398844433395197
2649 3 -2.0 11.5184839305535434 1.6022175856932903 20.2437313521344926
2650 3 -2.0 11.8352564057368337 4.8066527570798705 19.2360375345445433
2651 3 -2.0 9.4998823721077947 4.8066527570798705 18.0504108584301051
2652 3 -2.0 13.8538579641825805 1.6022175856932903 21.4293580282489380
2653 3 -2.0 10.2464109197616509 3.5710882025256927 20.5497300256895024
2654 3 -2.0 13.1073294165287244 2.8377821402474677 18.9300388609895371
2655 3 -2.0 10.7719553828996872 2.8377821402474677 18.3564095319851113
2656 3 -2.0 12.5817849533906898 3.5710882025256927 21.1233593546939282
2657 3 -2.0 13.1073294165287244 0.3666530311391118 18.9300388609895371
2658 3 -2.0 10.2464109197616509 6.0422173116340492 20.5497300256895024
2659 3 -2.0 12.5817849533906898 6.0422173116340492 21.1233593546939282
2660 3 -2.0 10.7719553828996872 0.3666530311391118 18.3564095319851113
2661 1 2.0 12.0235338117452724 1.6022175856932903 22.0351493224336572
2662 1 2.0 11.3302065245451011 4.8066527570798705 26.2179015390629466
2663 1 2.0 13.6655805581741383 4.8066527570798705 24.2284698161380483
2664 1 2.0 9.6881597781162352 1.6022175856932903 24.0245810453585555
2665 2 4.0 9.3414961345161505 3.2044351713865806 21.9332049370439108
2666 2 4.0 11.6768701681451876 3.2044351713865806 24.1265254307483019
2667 2 4.0 9.3414961345161505 0.0000000000000000 21.9332049370439108
2668 2 4.0 11.6768701681451876 0.0000000000000000 24.1265254307483019
2669 3 -2.0 11.5184839305535434 1.6022175856932903 24.6303723395432748
2670 3 -2.0 11.8352564057368337 4.8066527570798705 23.6226785219533255
2671 3 -2.0 9.4998823721077947 4.8066527570798705 22.4370518458388872
2672 3 -2.0 13.8538579641825805 1.6022175856932903 25.8159990156577202
2673 3 -2.0 10.2464109197616509 3.5710882025256927 24.9363710130982845
2674 3 -2.0 13.1073294165287244 2.8377821402474677 23.3166798483983193
2675 3 -2.0 10.7719553828996872 2.8377821402474677 22.7430505193938934
2676 3 -2.0 12.5817849533906898 3.5710882025256927 25.5100003421027104
2677 3 -2.0 13.1073294165287244 0.3666530311391118 23.3166798483983193
2678 3 -2.0 10.2464109197616509 6.0422173116340492 24.9363710130982845
2679 3 -2.0 12.5817849533906898 6.0422173116340492 25.5100003421027104
2680 3 -2.0 10.7719553828996872 0.3666530311391118 22.7430505193938934
2681 1 2.0 12.0235338117452724 1.6022175856932903 26.4217903098424394
2682 1 2.0 11.3302065245451011 4.8066527570798705 30.6045425264717288
2683 1 2.0 13.6655805581741383 4.8066527570798705 28.6151108035468305
2684 1 2.0 9.6881597781162352 1.6022175856932903 28.4112220327673377
2685 2 4.0 9.3414961345161505 3.2044351713865806 26.3198459244526930
2686 2 4.0 11.6768701681451876 3.2044351713865806 28.5131664181570841
2687 2 4.0 9.3414961345161505 0.0000000000000000 26.3198459244526930
2688 2 4.0 11.6768701681451876 0.0000000000000000 28.5131664181570841
2689 3 -2.0 11.5184839305535434 1.6022175856932903 29.0170133269520569
2690 3 -2.0 11.8352564057368337 4.8066527570798705 28.0093195093621077
2691 3 -2.0 9.4998823721077947 4.8066527570798705 26.8236928332476694
2692 3 -2.0 13.8538579641825805 1.6022175856932903 30.2026400030665023
2693 3 -2.0 10.2464109197616509 3.5710882025256927 29.3230120005070667
2694 3 -2.0 13.1073294165287244 2.8377821402474677 27.7033208358071015
2695 3 -2.0 10.7719553828996872 2.8377821402474677 27.1296915068026756
2696 3 -2.0 12.5817849533906898 3.5710882025256927 29.8966413295114926
2697 3 -2.0 13.1073294165287244 0.3666530311391118 27.7033208358071015
2698 3 -2.0 10.2464109197616509 6.0422173116340492 29.3230120005070667
2699 3 -2.0 12.5817849533906898 6.0422173116340492 29.8966413295114926
2700 3 -2.0 10.7719553828996872 0.3666530311391118 27.1296915068026756
2701 1 2.0 12.0235338117452724 1.6022175856932903 30.8084312972512215
2702 1 2.0 11.3302065245451011 4.8066527570798705 34.9911835138805074
2703 1 2.0 13.6655805581741383 4.8066527570798705 33.0017517909556162
2704 1 2.0 9.6881597781162352 1.6022175856932903 32.7978630201761163
2705 2 4.0 9.3414961345161505 3.2044351713865806 30.7064869118614752
2706 2 4.0 11.6768701681451876 3.2044351713865806 32.8998074055658662
2707 2 4.0 9.3414961345161505 0.0000000000000000 30.7064869118614752
2708 2 4.0 11.6768701681451876 0.0000000000000000 32.8998074055658662
2709 3 -2.0 11.5184839305535434 1.6022175856932903 33.4036543143608355
2710 3 -2.0 11.8352564057368337 4.8066527570798705 32.3959604967708898
2711 3 -2.0 9.4998823721077947 4.8066527570798705 31.2103338206564516
2712 3 -2.0 13.8538579641825805 1.6022175856932903 34.5892809904752880
2713 3 -2.0 10.2464109197616509 3.5710882025256927 33.7096529879158524
2714 3 -2.0 13.1073294165287244 2.8377821402474677 32.0899618232158801
2715 3 -2.0 10.7719553828996872 2.8377821402474677 31.5163324942114578
2716 3 -2.0 12.5817849533906898 3.5710882025256927 34.2832823169202712
2717 3 -2.0 13.1073294165287244 0.3666530311391118 32.0899618232158801
2718 3 -2.0 10.2464109197616509 6.0422173116340492 33.7096529879158524
2719 3 -2.0 12.5817849533906898 6.0422173116340492 34.2832823169202712
2720 3 -2.0 10.7719553828996872 0.3666530311391118 31.5163324942114578
2721 1 2.0 12.0235338117452724 8.0110879284664520 0.1019443853897463
2722 1 2.0 11.3302065245451011 11.2155230998530318 4.2846966020190349
2723 1 2.0 13.6655805581741383 11.2155230998530318 2.2952648790941383
2724 1 2.0 9.6881597781162352 8.0110879284664520 2.0913761083146447
2725 2 4.0 9.3414961345161505 9.6133055141597410 0.0000000000000000
2726 2 4.0 11.6768701681451876 9.6133055141597410 2.1933204937043911
2727 2 4.0 9.3414961345161505 6.4088703427731613 0.0000000000000000
2728 2 4.0 11.6768701681451876 6.4088703427731613 2.1933204937043911
2729 3 -2.0 11.5184839305535434 8.0110879284664520 2.6971674024993644
2730 3 -2.0 11.8352564057368337 11.2155230998530318 1.6894735849094176
2731 3 -2.0 9.4998823721077947 11.2155230998530318 0.5038469087949736
2732 3 -2.0 13.8538579641825805 8.0110879284664520 3.8827940786138089
2733 3 -2.0 10.2464109197616509 9.9799585452988531 3.0031660760543750
2734 3 -2.0 13.1073294165287244 9.2466524830206289 1.3834749113544080
2735 3 -2.0 10.7719553828996872 9.2466524830206289 0.8098455823499836
2736 3 -2.0 12.5817849533906898 9.9799585452988531 3.5767954050587982
2737 3 -2.0 13.1073294165287244 6.7755233739122724 1.3834749113544080
2738 3 -2.0 10.2464109197616509 12.4510876544072104 3.0031660760543750
2739 3 -2.0 12.5817849533906898 12.4510876544072104 3.5767954050587982
2740 3 -2.0 10.7719553828996872 6.7755233739122724 0.8098455823499836
2741 1 2.0 12.0235338117452724 8.0110879284664520 4.4885853727985285
2742 1 2.0 11.3302065245451011 11.2155230998530318 8.6713375894278162
2743 1 2.0 13.6655805581741383 11.2155230998530318 6.6819058665029205
2744 1 2.0 9.6881597781162352 8.0110879284664520 6.4780170957234269
2745 2 4.0 9.3414961345161505 9.6133055141597410 4.3866409874087822
2746 2 4.0 11.6768701681451876 9.6133055141597410 6.5799614811131732
2747 2 4.0 9.3414961345161505 6.4088703427731613 4.3866409874087822
2748 2 4.0 11.6768701681451876 6.4088703427731613 6.5799614811131732
2749 3 -2.0 11.5184839305535434 8.0110879284664520 7.0838083899081470
2750 3 -2.0 11.8352564057368337 11.2155230998530318 6.0761145723181995
2751 3 -2.0 9.4998823721077947 11.2155230998530318 4.8904878962037559
2752 3 -2.0 13.8538579641825805 8.0110879284664520 8.2694350660225915
2753 3 -2.0 10.2464109197616509 9.9799585452988531 7.3898070634631576
2754 3 -2.0 13.1073294165287244 9.2466524830206289 5.7701158987631906
2755 3 -2.0 10.7719553828996872 9.2466524830206289 5.1964865697587657
2756 3 -2.0 12.5817849533906898 9.9799585452988531 7.9634363924675799
2757 3 -2.0 13.1073294165287244 6.7755233739122724 5.7701158987631906
2758 3 -2.0 10.2464109197616509 12.4510876544072104 7.3898070634631576
2759 3 -2.0 12.5817849533906898 12.4510876544072104 7.9634363924675799
2760 3 -2.0 10.7719553828996872 6.7755233739122724 5.1964865697587657
2761 1 2.0 12.0235338117452724 8.0110879284664520 8.8752263602073107
2762 1 2.0 11.3302065245451011 11.2155230998530318 13.0579785768365984
2763 1 2.0 13.6655805581741383 11.2155230998530318 11.0685468539117036
2764 1 2.0 9.6881597781162352 8.0110879284664520 10.8646580831322090
2765 2 4.0 9.3414961345161505 9.6133055141597410 8.7732819748175643
2766 2 4.0 11.6768701681451876 9.6133055141597410 10.9666024685219554
2767 2 4.0 9.3414961345161505 6.4088703427731613 8.7732819748175643
2768 2 4.0 11.6768701681451876 6.4088703427731613 10.9666024685219554
2769 3 -2.0 11.5184839305535434 8.0110879284664520 11.4704493773169283
2770 3 -2.0 11.8352564057368337 11.2155230998530318 10.4627555597269826
2771 3 -2.0 9.4998823721077947 11.2155230998530318 9.2771288836125372
2772 3 -2.0 13.8538579641825805 8.0110879284664520 12.6560760534313737
2773 3 -2.0 10.2464109197616509 9.9799585452988531 11.7764480508719398
2774 3 -2.0 13.1073294165287244 9.2466524830206289 10.1567568861719728
2775 3 -2.0 10.7719553828996872 9.2466524830206289 9.5831275571675469
2776 3 -2.0 12.5817849533906898 9.9799585452988531 12.3500773798763621
2777 3 -2.0 13.1073294165287244 6.7755233739122724 10.1567568861719728
2778 3 -2.0 10.2464109197616509 12.4510876544072104 11.7764480508719398
2779 3 -2.0 12.5817849533906898 12.4510876544072104 12.3500773798763621
2780 3 -2.0 10.7719553828996872 6.7755233739122724 9.5831275571675469
2781 1 2.0 12.0235338117452724 8.0110879284664520 13.2618673476160929
2782 1 2.0 11.3302065245451011 11.2155230998530318 17.4446195642453823
2783 1 2.0 13.6655805581741383 11.2155230998530318 15.4551878413204857
2784 1 2.0 9.6881597781162352 8.0110879284664520 15.2512990705409912
2785 2 4.0 9.3414961345161505 9.6133055141597410 13.1599229622263465
2786 2 4.0 11.6768701681451876 9.6133055141597410 15.3532434559307376
2787 2 4.0 9.3414961345161505 6.4088703427731613 13.1599229622263465
2788 2 4.0 11.6768701681451876 6.4088703427731613 15.3532434559307376
2789 3 -2.0 11.5184839305535434 8.0110879284664520 15.8570903647257104
2790 3 -2.0 11.8352564057368337 11.2155230998530318 14.8493965471357647
2791 3 -2.0 9.4998823721077947 11.2155230998530318 13.6637698710213193
2792 3 -2.0 13.8538579641825805 8.0110879284664520 17.0427170408401558
2793 3 -2.0 10.2464109197616509 9.9799585452988531 16.1630890382807237
2794 3 -2.0 13.1073294165287244 9.2466524830206289 14.5433978735807550
2795 3 -2.0 10.7719553828996872 9.2466524830206289 13.9697685445763291
2796 3 -2.0 12.5817849533906898 9.9799585452988531 16.7367183672851425
2797 3 -2.0 13.1073294165287244 6.7755233739122724 14.5433978735807550
2798 3 -2.0 10.2464109197616509 12.4510876544072104 16.1630890382807237
2799 3 -2.0 12.5817849533906898 12.4510876544072104 16.7367183672851425
2800 3 -2.0 10.7719553828996872 6.7755233739122724 13.9697685445763291
2801 1 2.0 12.0235338117452724 8.0110879284664520 17.6485083350248750
2802 1 2.0 11.3302065245451011 11.2155230998530318 21.8312605516541645
2803 1 2.0 13.6655805581741383 11.2155230998530318 19.8418288287292661
2804 1 2.0 9.6881597781162352 8.0110879284664520 19.6379400579497734
2805 2 4.0 9.3414961345161505 9.6133055141597410 17.5465639496351287
2806 2 4.0 11.6768701681451876 9.6133055141597410 19.7398844433395197
2807 2 4.0 9.3414961345161505 6.4088703427731613 17.5465639496351287
2808 2 4.0 11.6768701681451876 6.4088703427731613 19.7398844433395197
2809 3 -2.0 11.5184839305535434 8.0110879284664520 20.2437313521344926
2810 3 -2.0 11.8352564057368337 11.2155230998530318 19.2360375345445433
2811 3 -2.0 9.4998823721077947 11.2155230998530318 18.0504108584301051
2812 3 -2.0 13.8538579641825805 8.0110879284664520 21.4293580282489380
2813 3 -2.0 10.2464109197616509 9.9799585452988531 20.5497300256895024
2814 3 -2.0 13.1073294165287244 9.2466524830206289 18.9300388609895371
2815 3 -2.0 10.7719553828996872 9.2466524830206289 18.3564095319851113
2816 3 -2.0 12.5817849533906898 9.9799585452988531 21.1233593546939282
2817 3 -2.0 13.1073294165287244 6.7755233739122724 18.9300388609895371
2818 3 -2.0 10.2464109197616509 12.4510876544072104 20.5497300256895024
2819 3 -2.0 12.5817849533906898 12.4510876544072104 21.1233593546939282
2820 3 -2.0 10.7719553828996872 6.7755233739122724 18.3564095319851113
2821 1 2.0 12.0235338117452724 8.0110879284664520 22.0351493224336572
2822 1 2.0 11.3302065245451011 11.2155230998530318 26.2179015390629466
2823 1 2.0 13.6655805581741383 11.2155230998530318 24.2284698161380483
2824 1 2.0 9.6881597781162352 8.0110879284664520 24.0245810453585555
2825 2 4.0 9.3414961345161505 9.6133055141597410 21.9332049370439108
2826 2 4.0 11.6768701681451876 9.6133055141597410 24.1265254307483019
2827 2 4.0 9.3414961345161505 6.4088703427731613 21.9332049370439108
2828 2 4.0 11.6768701681451876 6.4088703427731613 24.1265254307483019
2829 3 -2.0 11.5184839305535434 8.0110879284664520 24.6303723395432748
2830 3 -2.0 11.8352564057368337 11.2155230998530318 23.6226785219533255
2831 3 -2.0 9.4998823721077947 11.2155230998530318 22.4370518458388872
2832 3 -2.0 13.8538579641825805 8.0110879284664520 25.8159990156577202
2833 3 -2.0 10.2464109197616509 9.9799585452988531 24.9363710130982845
2834 3 -2.0 13.1073294165287244 9.2466524830206289 23.3166798483983193
2835 3 -2.0 10.7719553828996872 9.2466524830206289 22.7430505193938934
2836 3 -2.0 12.5817849533906898 9.9799585452988531 25.5100003421027104
2837 3 -2.0 13.1073294165287244 6.7755233739122724 23.3166798483983193
2838 3 -2.0 10.2464109197616509 12.4510876544072104 24.9363710130982845
2839 3 -2.0 12.5817849533906898 12.4510876544072104 25.5100003421027104
2840 3 -2.0 10.7719553828996872 6.7755233739122724 22.7430505193938934
2841 1 2.0 12.0235338117452724 8.0110879284664520 26.4217903098424394
2842 1 2.0 11.3302065245451011 11.2155230998530318 30.6045425264717288
2843 1 2.0 13.6655805581741383 11.2155230998530318 28.6151108035468305
2844 1 2.0 9.6881597781162352 8.0110879284664520 28.4112220327673377
2845 2 4.0 9.3414961345161505 9.6133055141597410 26.3198459244526930
2846 2 4.0 11.6768701681451876 9.6133055141597410 28.5131664181570841
2847 2 4.0 9.3414961345161505 6.4088703427731613 26.3198459244526930
2848 2 4.0 11.6768701681451876 6.4088703427731613 28.5131664181570841
2849 3 -2.0 11.5184839305535434 8.0110879284664520 29.0170133269520569
2850 3 -2.0 11.8352564057368337 11.2155230998530318 28.0093195093621077
2851 3 -2.0 9.4998823721077947 11.2155230998530318 26.8236928332476694
2852 3 -2.0 13.8538579641825805 8.0110879284664520 30.2026400030665023
2853 3 -2.0 10.2464109197616509 9.9799585452988531 29.3230120005070667
2854 3 -2.0 13.1073294165287244 9.2466524830206289 27.7033208358071015
2855 3 -2.0 10.7719553828996872 9.2466524830206289 27.1296915068026756
2856 3 -2.0 12.5817849533906898 9.9799585452988531 29.8966413295114926
2857 3 -2.0 13.1073294165287244 6.7755233739122724 27.7033208358071015
2858 3 -2.0 10.2464109197616509 12.4510876544072104 29.3230120005070667
2859 3 -2.0 12.5817849533906898 12.4510876544072104 29.8966413295114926
2860 3 -2.0 10.7719553828996872 6.7755233739122724 27.1296915068026756
2861 1 2.0 12.0235338117452724 8.0110879284664520 30.8084312972512215
2862 1 2.0 11.3302065245451011 11.2155230998530318 34.9911835138805074
2863 1 2.0 13.6655805581741383 11.2155230998530318 33.0017517909556162
2864 1 2.0 9.6881597781162352 8.0110879284664520 32.7978630201761163
2865 2 4.0 9.3414961345161505 9.6133055141597410 30.7064869118614752
2866 2 4.0 11.6768701681451876 9.6133055141597410 32.8998074055658662
2867 2 4.0 9.3414961345161505 6.4088703427731613 30.7064869118614752
2868 2 4.0 11.6768701681451876 6.4088703427731613 32.8998074055658662
2869 3 -2.0 11.5184839305535434 8.0110879284664520 33.4036543143608355
2870 3 -2.0 11.8352564057368337 11.2155230998530318 32.3959604967708898
2871 3 -2.0 9.4998823721077947 11.2155230998530318 31.2103338206564516
2872 3 -2.0 13.8538579641825805 8.0110879284664520 34.5892809904752880
2873 3 -2.0 10.2464109197616509 9.9799585452988531 33.7096529879158524
2874 3 -2.0 13.1073294165287244 9.2466524830206289 32.0899618232158801
2875 3 -2.0 10.7719553828996872 9.2466524830206289 31.5163324942114578
2876 3 -2.0 12.5817849533906898 9.9799585452988531 34.2832823169202712
2877 3 -2.0 13.1073294165287244 6.7755233739122724 32.0899618232158801
2878 3 -2.0 10.2464109197616509 12.4510876544072104 33.7096529879158524
2879 3 -2.0 12.5817849533906898 12.4510876544072104 34.2832823169202712
2880 3 -2.0 10.7719553828996872 6.7755233739122724 31.5163324942114578
2881 1 2.0 12.0235338117452724 14.4199582712396133 0.1019443853897463
2882 1 2.0 11.3302065245451011 17.6243934426261930 4.2846966020190349
2883 1 2.0 13.6655805581741383 17.6243934426261930 2.2952648790941383
2884 1 2.0 9.6881597781162352 14.4199582712396133 2.0913761083146447
2885 2 4.0 9.3414961345161505 16.0221758569329040 0.0000000000000000
2886 2 4.0 11.6768701681451876 16.0221758569329040 2.1933204937043911
2887 2 4.0 9.3414961345161505 12.8177406855463225 0.0000000000000000
2888 2 4.0 11.6768701681451876 12.8177406855463225 2.1933204937043911
2889 3 -2.0 11.5184839305535434 14.4199582712396133 2.6971674024993644
2890 3 -2.0 11.8352564057368337 17.6243934426261930 1.6894735849094176
2891 3 -2.0 9.4998823721077947 17.6243934426261930 0.5038469087949736
2892 3 -2.0 13.8538579641825805 14.4199582712396133 3.8827940786138089
2893 3 -2.0 10.2464109197616509 16.3888288880720161 3.0031660760543750
2894 3 -2.0 13.1073294165287244 15.6555228257937884 1.3834749113544080
2895 3 -2.0 10.7719553828996872 15.6555228257937884 0.8098455823499836
2896 3 -2.0 12.5817849533906898 16.3888288880720161 3.5767954050587982
2897 3 -2.0 13.1073294165287244 13.1843937166854346 1.3834749113544080
2898 3 -2.0 10.2464109197616509 18.8599579971803735 3.0031660760543750
2899 3 -2.0 12.5817849533906898 18.8599579971803735 3.5767954050587982
2900 3 -2.0 10.7719553828996872 13.1843937166854346 0.8098455823499836
2901 1 2.0 12.0235338117452724 14.4199582712396133 4.4885853727985285
2902 1 2.0 11.3302065245451011 17.6243934426261930 8.6713375894278162
2903 1 2.0 13.6655805581741383 17.6243934426261930 6.6819058665029205
2904 1 2.0 9.6881597781162352 14.4199582712396133 6.4780170957234269
2905 2 4.0 9.3414961345161505 16.0221758569329040 4.3866409874087822
2906 2 4.0 11.6768701681451876 16.0221758569329040 6.5799614811131732
2907 2 4.0 9.3414961345161505 12.8177406855463225 4.3866409874087822
2908 2 4.0 11.6768701681451876 12.8177406855463225 6.5799614811131732
2909 3 -2.0 11.5184839305535434 14.4199582712396133 7.0838083899081470
2910 3 -2.0 11.8352564057368337 17.6243934426261930 6.0761145723181995
2911 3 -2.0 9.4998823721077947 17.6243934426261930 4.8904878962037559
2912 3 -2.0 13.8538579641825805 14.4199582712396133 8.2694350660225915
2913 3 -2.0 10.2464109197616509 16.3888288880720161 7.3898070634631576
2914 3 -2.0 13.1073294165287244 15.6555228257937884 5.7701158987631906
2915 3 -2.0 10.7719553828996872 15.6555228257937884 5.1964865697587657
2916 3 -2.0 12.5817849533906898 16.3888288880720161 7.9634363924675799
2917 3 -2.0 13.1073294165287244 13.1843937166854346 5.7701158987631906
2918 3 -2.0 10.2464109197616509 18.8599579971803735 7.3898070634631576
2919 3 -2.0 12.5817849533906898 18.8599579971803735 7.9634363924675799
2920 3 -2.0 10.7719553828996872 13.1843937166854346 5.1964865697587657
2921 1 2.0 12.0235338117452724 14.4199582712396133 8.8752263602073107
2922 1 2.0 11.3302065245451011 17.6243934426261930 13.0579785768365984
2923 1 2.0 13.6655805581741383 17.6243934426261930 11.0685468539117036
2924 1 2.0 9.6881597781162352 14.4199582712396133 10.8646580831322090
2925 2 4.0 9.3414961345161505 16.0221758569329040 8.7732819748175643
2926 2 4.0 11.6768701681451876 16.0221758569329040 10.9666024685219554
2927 2 4.0 9.3414961345161505 12.8177406855463225 8.7732819748175643
2928 2 4.0 11.6768701681451876 12.8177406855463225 10.9666024685219554
2929 3 -2.0 11.5184839305535434 14.4199582712396133 11.4704493773169283
2930 3 -2.0 11.8352564057368337 17.6243934426261930 10.4627555597269826
2931 3 -2.0 9.4998823721077947 17.6243934426261930 9.2771288836125372
2932 3 -2.0 13.8538579641825805 14.4199582712396133 12.6560760534313737
2933 3 -2.0 10.2464109197616509 16.3888288880720161 11.7764480508719398
2934 3 -2.0 13.1073294165287244 15.6555228257937884 10.1567568861719728
2935 3 -2.0 10.7719553828996872 15.6555228257937884 9.5831275571675469
2936 3 -2.0 12.5817849533906898 16.3888288880720161 12.3500773798763621
2937 3 -2.0 13.1073294165287244 13.1843937166854346 10.1567568861719728
2938 3 -2.0 10.2464109197616509 18.8599579971803735 11.7764480508719398
2939 3 -2.0 12.5817849533906898 18.8599579971803735 12.3500773798763621
2940 3 -2.0 10.7719553828996872 13.1843937166854346 9.5831275571675469
2941 1 2.0 12.0235338117452724 14.4199582712396133 13.2618673476160929
2942 1 2.0 11.3302065245451011 17.6243934426261930 17.4446195642453823
2943 1 2.0 13.6655805581741383 17.6243934426261930 15.4551878413204857
2944 1 2.0 9.6881597781162352 14.4199582712396133 15.2512990705409912
2945 2 4.0 9.3414961345161505 16.0221758569329040 13.1599229622263465
2946 2 4.0 11.6768701681451876 16.0221758569329040 15.3532434559307376
2947 2 4.0 9.3414961345161505 12.8177406855463225 13.1599229622263465
2948 2 4.0 11.6768701681451876 12.8177406855463225 15.3532434559307376
2949 3 -2.0 11.5184839305535434 14.4199582712396133 15.8570903647257104
2950 3 -2.0 11.8352564057368337 17.6243934426261930 14.8493965471357647
2951 3 -2.0 9.4998823721077947 17.6243934426261930 13.6637698710213193
2952 3 -2.0 13.8538579641825805 14.4199582712396133 17.0427170408401558
2953 3 -2.0 10.2464109197616509 16.3888288880720161 16.1630890382807237
2954 3 -2.0 13.1073294165287244 15.6555228257937884 14.5433978735807550
2955 3 -2.0 10.7719553828996872 15.6555228257937884 13.9697685445763291
2956 3 -2.0 12.5817849533906898 16.3888288880720161 16.7367183672851425
2957 3 -2.0 13.1073294165287244 13.1843937166854346 14.5433978735807550
2958 3 -2.0 10.2464109197616509 18.8599579971803735 16.1630890382807237
2959 3 -2.0 12.5817849533906898 18.8599579971803735 16.7367183672851425
2960 3 -2.0 10.7719553828996872 13.1843937166854346 13.9697685445763291
2961 1 2.0 12.0235338117452724 14.4199582712396133 17.6485083350248750
2962 1 2.0 11.3302065245451011 17.6243934426261930 21.8312605516541645
2963 1 2.0 13.6655805581741383 17.6243934426261930 19.8418288287292661
2964 1 2.0 9.6881597781162352 14.4199582712396133 19.6379400579497734
2965 2 4.0 9.3414961345161505 16.0221758569329040 17.5465639496351287
2966 2 4.0 11.6768701681451876 16.0221758569329040 19.7398844433395197
2967 2 4.0 9.3414961345161505 12.8177406855463225 17.5465639496351287
2968 2 4.0 11.6768701681451876 12.8177406855463225 19.7398844433395197
2969 3 -2.0 11.5184839305535434 14.4199582712396133 20.2437313521344926
2970 3 -2.0 11.8352564057368337 17.6243934426261930 19.2360375345445433
2971 3 -2.0 9.4998823721077947 17.6243934426261930 18.0504108584301051
2972 3 -2.0 13.8538579641825805 14.4199582712396133 21.4293580282489380
2973 3 -2.0 10.2464109197616509 16.3888288880720161 20.5497300256895024
2974 3 -2.0 13.1073294165287244 15.6555228257937884 18.9300388609895371
2975 3 -2.0 10.7719553828996872 15.6555228257937884 18.3564095319851113
2976 3 -2.0 12.5817849533906898 16.3888288880720161 21.1233593546939282
2977 3 -2.0 13.1073294165287244 13.1843937166854346 18.9300388609895371
2978 3 -2.0 10.2464109197616509 18.8599579971803735 20.5497300256895024
2979 3 -2.0 12.5817849533906898 18.8599579971803735 21.1233593546939282
2980 3 -2.0 10.7719553828996872 13.1843937166854346 18.3564095319851113
2981 1 2.0 12.0235338117452724 14.4199582712396133 22.0351493224336572
2982 1 2.0 11.3302065245451011 17.6243934426261930 26.2179015390629466
2983 1 2.0 13.6655805581741383 17.6243934426261930 24.2284698161380483
2984 1 2.0 9.6881597781162352 14.4199582712396133 24.0245810453585555
2985 2 4.0 9.3414961345161505 16.0221758569329040 21.9332049370439108
2986 2 4.0 11.6768701681451876 16.0221758569329040 24.1265254307483019
2987 2 4.0 9.3414961345161505 12.8177406855463225 21.9332049370439108
2988 2 4.0 11.6768701681451876 12.8177406855463225 24.1265254307483019
2989 3 -2.0 11.5184839305535434 14.4199582712396133 24.6303723395432748
2990 3 -2.0 11.8352564057368337 17.6243934426261930 23.6226785219533255
2991 3 -2.0 9.4998823721077947 17.6243934426261930 22.4370518458388872
2992 3 -2.0 13.8538579641825805 14.4199582712396133 25.8159990156577202
2993 3 -2.0 10.2464109197616509 16.3888288880720161 24.9363710130982845
2994 3 -2.0 13.1073294165287244 15.6555228257937884 23.3166798483983193
2995 3 -2.0 10.7719553828996872 15.6555228257937884 22.7430505193938934
2996 3 -2.0 12.5817849533906898 16.3888288880720161 25.5100003421027104
2997 3 -2.0 13.1073294165287244 13.1843937166854346 23.3166798483983193
2998 3 -2.0 10.2464109197616509 18.8599579971803735 24.9363710130982845
2999 3 -2.0 12.5817849533906898 18.8599579971803735 25.5100003421027104
3000 3 -2.0 10.7719553828996872 13.1843937166854346 22.7430505193938934
3001 1 2.0 12.0235338117452724 14.4199582712396133 26.4217903098424394
3002 1 2.0 11.3302065245451011 17.6243934426261930 30.6045425264717288
3003 1 2.0 13.6655805581741383 17.6243934426261930 28.6151108035468305
3004 1 2.0 9.6881597781162352 14.4199582712396133 28.4112220327673377
3005 2 4.0 9.3414961345161505 16.0221758569329040 26.3198459244526930
3006 2 4.0 11.6768701681451876 16.0221758569329040 28.5131664181570841
3007 2 4.0 9.3414961345161505 12.8177406855463225 26.3198459244526930
3008 2 4.0 11.6768701681451876 12.8177406855463225 28.5131664181570841
3009 3 -2.0 11.5184839305535434 14.4199582712396133 29.0170133269520569
3010 3 -2.0 11.8352564057368337 17.6243934426261930 28.0093195093621077
3011 3 -2.0 9.4998823721077947 17.6243934426261930 26.8236928332476694
3012 3 -2.0 13.8538579641825805 14.4199582712396133 30.2026400030665023
3013 3 -2.0 10.2464109197616509 16.3888288880720161 29.3230120005070667
3014 3 -2.0 13.1073294165287244 15.6555228257937884 27.7033208358071015
3015 3 -2.0 10.7719553828996872 15.6555228257937884 27.1296915068026756
3016 3 -2.0 12.5817849533906898 16.3888288880720161 29.8966413295114926
3017 3 -2.0 13.1073294165287244 13.1843937166854346 27.7033208358071015
3018 3 -2.0 10.2464109197616509 18.8599579971803735 29.3230120005070667
3019 3 -2.0 12.5817849533906898 18.8599579971803735 29.8966413295114926
3020 3 -2.0 10.7719553828996872 13.1843937166854346 27.1296915068026756
3021 1 2.0 12.0235338117452724 14.4199582712396133 30.8084312972512215
3022 1 2.0 11.3302065245451011 17.6243934426261930 34.9911835138805074
3023 1 2.0 13.6655805581741383 17.6243934426261930 33.0017517909556162
3024 1 2.0 9.6881597781162352 14.4199582712396133 32.7978630201761163
3025 2 4.0 9.3414961345161505 16.0221758569329040 30.7064869118614752
3026 2 4.0 11.6768701681451876 16.0221758569329040 32.8998074055658662
3027 2 4.0 9.3414961345161505 12.8177406855463225 30.7064869118614752
3028 2 4.0 11.6768701681451876 12.8177406855463225 32.8998074055658662
3029 3 -2.0 11.5184839305535434 14.4199582712396133 33.4036543143608355
3030 3 -2.0 11.8352564057368337 17.6243934426261930 32.3959604967708898
3031 3 -2.0 9.4998823721077947 17.6243934426261930 31.2103338206564516
3032 3 -2.0 13.8538579641825805 14.4199582712396133 34.5892809904752880
3033 3 -2.0 10.2464109197616509 16.3888288880720161 33.7096529879158524
3034 3 -2.0 13.1073294165287244 15.6555228257937884 32.0899618232158801
3035 3 -2.0 10.7719553828996872 15.6555228257937884 31.5163324942114578
3036 3 -2.0 12.5817849533906898 16.3888288880720161 34.2832823169202712
3037 3 -2.0 13.1073294165287244 13.1843937166854346 32.0899618232158801
3038 3 -2.0 10.2464109197616509 18.8599579971803735 33.7096529879158524
3039 3 -2.0 12.5817849533906898 18.8599579971803735 34.2832823169202712
3040 3 -2.0 10.7719553828996872 13.1843937166854346 31.5163324942114578
3041 1 2.0 12.0235338117452724 20.8288286140127745 0.1019443853897463
3042 1 2.0 11.3302065245451011 24.0332637853993560 4.2846966020190349
3043 1 2.0 13.6655805581741383 24.0332637853993560 2.2952648790941383
3044 1 2.0 9.6881597781162352 20.8288286140127745 2.0913761083146447
3045 2 4.0 9.3414961345161505 22.4310461997060635 0.0000000000000000
3046 2 4.0 11.6768701681451876 22.4310461997060635 2.1933204937043911
3047 2 4.0 9.3414961345161505 19.2266110283194820 0.0000000000000000
3048 2 4.0 11.6768701681451876 19.2266110283194820 2.1933204937043911
3049 3 -2.0 11.5184839305535434 20.8288286140127745 2.6971674024993644
3050 3 -2.0 11.8352564057368337 24.0332637853993560 1.6894735849094176
3051 3 -2.0 9.4998823721077947 24.0332637853993560 0.5038469087949736
3052 3 -2.0 13.8538579641825805 20.8288286140127745 3.8827940786138089
3053 3 -2.0 10.2464109197616509 22.7976992308451756 3.0031660760543750
3054 3 -2.0 13.1073294165287244 22.0643931685669514 1.3834749113544080
3055 3 -2.0 10.7719553828996872 22.0643931685669514 0.8098455823499836
3056 3 -2.0 12.5817849533906898 22.7976992308451756 3.5767954050587982
3057 3 -2.0 13.1073294165287244 19.5932640594585941 1.3834749113544080
3058 3 -2.0 10.2464109197616509 25.2688283399535329 3.0031660760543750
3059 3 -2.0 12.5817849533906898 25.2688283399535329 3.5767954050587982
3060 3 -2.0 10.7719553828996872 19.5932640594585941 0.8098455823499836
3061 1 2.0 12.0235338117452724 20.8288286140127745 4.4885853727985285
3062 1 2.0 11.3302065245451011 24.0332637853993560 8.6713375894278162
3063 1 2.0 13.6655805581741383 24.0332637853993560 6.6819058665029205
3064 1 2.0 9.6881597781162352 20.8288286140127745 6.4780170957234269
3065 2 4.0 9.3414961345161505 22.4310461997060635 4.3866409874087822
3066 2 4.0 11.6768701681451876 22.4310461997060635 6.5799614811131732
3067 2 4.0 9.3414961345161505 19.2266110283194820 4.3866409874087822
3068 2 4.0 11.6768701681451876 19.2266110283194820 6.5799614811131732
3069 3 -2.0 11.5184839305535434 20.8288286140127745 7.0838083899081470
3070 3 -2.0 11.8352564057368337 24.0332637853993560 6.0761145723181995
3071 3 -2.0 9.4998823721077947 24.0332637853993560 4.8904878962037559
3072 3 -2.0 13.8538579641825805 20.8288286140127745 8.2694350660225915
3073 3 -2.0 10.2464109197616509 22.7976992308451756 7.3898070634631576
3074 3 -2.0 13.1073294165287244 22.0643931685669514 5.7701158987631906
3075 3 -2.0 10.7719553828996872 22.0643931685669514 5.1964865697587657
3076 3 -2.0 12.5817849533906898 22.7976992308451756 7.9634363924675799
3077 3 -2.0 13.1073294165287244 19.5932640594585941 5.7701158987631906
3078 3 -2.0 10.2464109197616509 25.2688283399535329 7.3898070634631576
3079 3 -2.0 12.5817849533906898 25.2688283399535329 7.9634363924675799
3080 3 -2.0 10.7719553828996872 19.5932640594585941 5.1964865697587657
3081 1 2.0 12.0235338117452724 20.8288286140127745 8.8752263602073107
3082 1 2.0 11.3302065245451011 24.0332637853993560 13.0579785768365984
3083 1 2.0 13.6655805581741383 24.0332637853993560 11.0685468539117036
3084 1 2.0 9.6881597781162352 20.8288286140127745 10.8646580831322090
3085 2 4.0 9.3414961345161505 22.4310461997060635 8.7732819748175643
3086 2 4.0 11.6768701681451876 22.4310461997060635 10.9666024685219554
3087 2 4.0 9.3414961345161505 19.2266110283194820 8.7732819748175643
3088 2 4.0 11.6768701681451876 19.2266110283194820 10.9666024685219554
3089 3 -2.0 11.5184839305535434 20.8288286140127745 11.4704493773169283
3090 3 -2.0 11.8352564057368337 24.0332637853993560 10.4627555597269826
3091 3 -2.0 9.4998823721077947 24.0332637853993560 9.2771288836125372
3092 3 -2.0 13.8538579641825805 20.8288286140127745 12.6560760534313737
3093 3 -2.0 10.2464109197616509 22.7976992308451756 11.7764480508719398
3094 3 -2.0 13.1073294165287244 22.0643931685669514 10.1567568861719728
3095 3 -2.0 10.7719553828996872 22.0643931685669514 9.5831275571675469
3096 3 -2.0 12.5817849533906898 22.7976992308451756 12.3500773798763621
3097 3 -2.0 13.1073294165287244 19.5932640594585941 10.1567568861719728
3098 3 -2.0 10.2464109197616509 25.2688283399535329 11.7764480508719398
3099 3 -2.0 12.5817849533906898 25.2688283399535329 12.3500773798763621
3100 3 -2.0 10.7719553828996872 19.5932640594585941 9.5831275571675469
3101 1 2.0 12.0235338117452724 20.8288286140127745 13.2618673476160929
3102 1 2.0 11.3302065245451011 24.0332637853993560 17.4446195642453823
3103 1 2.0 13.6655805581741383 24.0332637853993560 15.4551878413204857
3104 1 2.0 9.6881597781162352 20.8288286140127745 15.2512990705409912
3105 2 4.0 9.3414961345161505 22.4310461997060635 13.1599229622263465
3106 2 4.0 11.6768701681451876 22.4310461997060635 15.3532434559307376
3107 2 4.0 9.3414961345161505 19.2266110283194820 13.1599229622263465
3108 2 4.0 11.6768701681451876 19.2266110283194820 15.3532434559307376
3109 3 -2.0 11.5184839305535434 20.8288286140127745 15.8570903647257104
3110 3 -2.0 11.8352564057368337 24.0332637853993560 14.8493965471357647
3111 3 -2.0 9.4998823721077947 24.0332637853993560 13.6637698710213193
3112 3 -2.0 13.8538579641825805 20.8288286140127745 17.0427170408401558
3113 3 -2.0 10.2464109197616509 22.7976992308451756 16.1630890382807237
3114 3 -2.0 13.1073294165287244 22.0643931685669514 14.5433978735807550
3115 3 -2.0 10.7719553828996872 22.0643931685669514 13.9697685445763291
3116 3 -2.0 12.5817849533906898 22.7976992308451756 16.7367183672851425
3117 3 -2.0 13.1073294165287244 19.5932640594585941 14.5433978735807550
3118 3 -2.0 10.2464109197616509 25.2688283399535329 16.1630890382807237
3119 3 -2.0 12.5817849533906898 25.2688283399535329 16.7367183672851425
3120 3 -2.0 10.7719553828996872 19.5932640594585941 13.9697685445763291
3121 1 2.0 12.0235338117452724 20.8288286140127745 17.6485083350248750
3122 1 2.0 11.3302065245451011 24.0332637853993560 21.8312605516541645
3123 1 2.0 13.6655805581741383 24.0332637853993560 19.8418288287292661
3124 1 2.0 9.6881597781162352 20.8288286140127745 19.6379400579497734
3125 2 4.0 9.3414961345161505 22.4310461997060635 17.5465639496351287
3126 2 4.0 11.6768701681451876 22.4310461997060635 19.7398844433395197
3127 2 4.0 9.3414961345161505 19.2266110283194820 17.5465639496351287
3128 2 4.0 11.6768701681451876 19.2266110283194820 19.7398844433395197
3129 3 -2.0 11.5184839305535434 20.8288286140127745 20.2437313521344926
3130 3 -2.0 11.8352564057368337 24.0332637853993560 19.2360375345445433
3131 3 -2.0 9.4998823721077947 24.0332637853993560 18.0504108584301051
3132 3 -2.0 13.8538579641825805 20.8288286140127745 21.4293580282489380
3133 3 -2.0 10.2464109197616509 22.7976992308451756 20.5497300256895024
3134 3 -2.0 13.1073294165287244 22.0643931685669514 18.9300388609895371
3135 3 -2.0 10.7719553828996872 22.0643931685669514 18.3564095319851113
3136 3 -2.0 12.5817849533906898 22.7976992308451756 21.1233593546939282
3137 3 -2.0 13.1073294165287244 19.5932640594585941 18.9300388609895371
3138 3 -2.0 10.2464109197616509 25.2688283399535329 20.5497300256895024
3139 3 -2.0 12.5817849533906898 25.2688283399535329 21.1233593546939282
3140 3 -2.0 10.7719553828996872 19.5932640594585941 18.3564095319851113
3141 1 2.0 12.0235338117452724 20.8288286140127745 22.0351493224336572
3142 1 2.0 11.3302065245451011 24.0332637853993560 26.2179015390629466
3143 1 2.0 13.6655805581741383 24.0332637853993560 24.2284698161380483
3144 1 2.0 9.6881597781162352 20.8288286140127745 24.0245810453585555
3145 2 4.0 9.3414961345161505 22.4310461997060635 21.9332049370439108
3146 2 4.0 11.6768701681451876 22.4310461997060635 24.1265254307483019
3147 2 4.0 9.3414961345161505 19.2266110283194820 21.9332049370439108
3148 2 4.0 11.6768701681451876 19.2266110283194820 24.1265254307483019
3149 3 -2.0 11.5184839305535434 20.8288286140127745 24.6303723395432748
3150 3 -2.0 11.8352564057368337 24.0332637853993560 23.6226785219533255
3151 3 -2.0 9.4998823721077947 24.0332637853993560 22.4370518458388872
3152 3 -2.0 13.8538579641825805 20.8288286140127745 25.8159990156577202
3153 3 -2.0 10.2464109197616509 22.7976992308451756 24.9363710130982845
3154 3 -2.0 13.1073294165287244 22.0643931685669514 23.3166798483983193
3155 3 -2.0 10.7719553828996872 22.0643931685669514 22.7430505193938934
3156 3 -2.0 12.5817849533906898 22.7976992308451756 25.5100003421027104
3157 3 -2.0 13.1073294165287244 19.5932640594585941 23.3166798483983193
3158 3 -2.0 10.2464109197616509 25.2688283399535329 24.9363710130982845
3159 3 -2.0 12.5817849533906898 25.2688283399535329 25.5100003421027104
3160 3 -2.0 10.7719553828996872 19.5932640594585941 22.7430505193938934
3161 1 2.0 12.0235338117452724 20.8288286140127745 26.4217903098424394
3162 1 2.0 11.3302065245451011 24.0332637853993560 30.6045425264717288
3163 1 2.0 13.6655805581741383 24.0332637853993560 28.6151108035468305
3164 1 2.0 9.6881597781162352 20.8288286140127745 28.4112220327673377
3165 2 4.0 9.3414961345161505 22.4310461997060635 26.3198459244526930
3166 2 4.0 11.6768701681451876 22.4310461997060635 28.5131664181570841
3167 2 4.0 9.3414961345161505 19.2266110283194820 26.3198459244526930
3168 2 4.0 11.6768701681451876 19.2266110283194820 28.5131664181570841
3169 3 -2.0 11.5184839305535434 20.8288286140127745 29.0170133269520569
3170 3 -2.0 11.8352564057368337 24.0332637853993560 28.0093195093621077
3171 3 -2.0 9.4998823721077947 24.0332637853993560 26.8236928332476694
3172 3 -2.0 13.8538579641825805 20.8288286140127745 30.2026400030665023
3173 3 -2.0 10.2464109197616509 22.7976992308451756 29.3230120005070667
3174 3 -2.0 13.1073294165287244 22.0643931685669514 27.7033208358071015
3175 3 -2.0 10.7719553828996872 22.0643931685669514 27.1296915068026756
3176 3 -2.0 12.5817849533906898 22.7976992308451756 29.8966413295114926
3177 3 -2.0 13.1073294165287244 19.5932640594585941 27.7033208358071015
3178 3 -2.0 10.2464109197616509 25.2688283399535329 29.3230120005070667
3179 3 -2.0 12.5817849533906898 25.2688283399535329 29.8966413295114926
3180 3 -2.0 10.7719553828996872 19.5932640594585941 27.1296915068026756
3181 1 2.0 12.0235338117452724 20.8288286140127745 30.8084312972512215
3182 1 2.0 11.3302065245451011 24.0332637853993560 34.9911835138805074
3183 1 2.0 13.6655805581741383 24.0332637853993560 33.0017517909556162
3184 1 2.0 9.6881597781162352 20.8288286140127745 32.7978630201761163
3185 2 4.0 9.3414961345161505 22.4310461997060635 30.7064869118614752
3186 2 4.0 11.6768701681451876 22.4310461997060635 32.8998074055658662
3187 2 4.0 9.3414961345161505 19.2266110283194820 30.7064869118614752
3188 2 4.0 11.6768701681451876 19.2266110283194820 32.8998074055658662
3189 3 -2.0 11.5184839305535434 20.8288286140127745 33.4036543143608355
3190 3 -2.0 11.8352564057368337 24.0332637853993560 32.3959604967708898
3191 3 -2.0 9.4998823721077947 24.0332637853993560 31.2103338206564516
3192 3 -2.0 13.8538579641825805 20.8288286140127745 34.5892809904752880
3193 3 -2.0 10.2464109197616509 22.7976992308451756 33.7096529879158524
3194 3 -2.0 13.1073294165287244 22.0643931685669514 32.0899618232158801
3195 3 -2.0 10.7719553828996872 22.0643931685669514 31.5163324942114578
3196 3 -2.0 12.5817849533906898 22.7976992308451756 34.2832823169202712
3197 3 -2.0 13.1073294165287244 19.5932640594585941 32.0899618232158801
3198 3 -2.0 10.2464109197616509 25.2688283399535329 33.7096529879158524
3199 3 -2.0 12.5817849533906898 25.2688283399535329 34.2832823169202712
3200 3 -2.0 10.7719553828996872 19.5932640594585941 31.5163324942114578
3201 1 2.0 12.0235338117452724 27.2376989567859340 0.1019443853897463
3202 1 2.0 11.3302065245451011 30.4421341281725155 4.2846966020190349
3203 1 2.0 13.6655805581741383 30.4421341281725155 2.2952648790941383
3204 1 2.0 9.6881597781162352 27.2376989567859340 2.0913761083146447
3205 2 4.0 9.3414961345161505 28.8399165424792265 0.0000000000000000
3206 2 4.0 11.6768701681451876 28.8399165424792265 2.1933204937043911
3207 2 4.0 9.3414961345161505 25.6354813710926450 0.0000000000000000
3208 2 4.0 11.6768701681451876 25.6354813710926450 2.1933204937043911
3209 3 -2.0 11.5184839305535434 27.2376989567859340 2.6971674024993644
3210 3 -2.0 11.8352564057368337 30.4421341281725155 1.6894735849094176
3211 3 -2.0 9.4998823721077947 30.4421341281725155 0.5038469087949736
3212 3 -2.0 13.8538579641825805 27.2376989567859340 3.8827940786138089
3213 3 -2.0 10.2464109197616509 29.2065695736183386 3.0031660760543750
3214 3 -2.0 13.1073294165287244 28.4732635113401109 1.3834749113544080
3215 3 -2.0 10.7719553828996872 28.4732635113401109 0.8098455823499836
3216 3 -2.0 12.5817849533906898 29.2065695736183386 3.5767954050587982
3217 3 -2.0 13.1073294165287244 26.0021344022317606 1.3834749113544080
3218 3 -2.0 10.2464109197616509 31.6776986827266924 3.0031660760543750
3219 3 -2.0 12.5817849533906898 31.6776986827266924 3.5767954050587982
3220 3 -2.0 10.7719553828996872 26.0021344022317606 0.8098455823499836
3221 1 2.0 12.0235338117452724 27.2376989567859340 4.4885853727985285
3222 1 2.0 11.3302065245451011 30.4421341281725155 8.6713375894278162
3223 1 2.0 13.6655805581741383 30.4421341281725155 6.6819058665029205
3224 1 2.0 9.6881597781162352 27.2376989567859340 6.4780170957234269
3225 2 4.0 9.3414961345161505 28.8399165424792265 4.3866409874087822
3226 2 4.0 11.6768701681451876 28.8399165424792265 6.5799614811131732
3227 2 4.0 9.3414961345161505 25.6354813710926450 4.3866409874087822
3228 2 4.0 11.6768701681451876 25.6354813710926450 6.5799614811131732
3229 3 -2.0 11.5184839305535434 27.2376989567859340 7.0838083899081470
3230 3 -2.0 11.8352564057368337 30.4421341281725155 6.0761145723181995
3231 3 -2.0 9.4998823721077947 30.4421341281725155 4.8904878962037559
3232 3 -2.0 13.8538579641825805 27.2376989567859340 8.2694350660225915
3233 3 -2.0 10.2464109197616509 29.2065695736183386 7.3898070634631576
3234 3 -2.0 13.1073294165287244 28.4732635113401109 5.7701158987631906
3235 3 -2.0 10.7719553828996872 28.4732635113401109 5.1964865697587657
3236 3 -2.0 12.5817849533906898 29.2065695736183386 7.9634363924675799
3237 3 -2.0 13.1073294165287244 26.0021344022317606 5.7701158987631906
3238 3 -2.0 10.2464109197616509 31.6776986827266924 7.3898070634631576
3239 3 -2.0 12.5817849533906898 31.6776986827266924 7.9634363924675799
3240 3 -2.0 10.7719553828996872 26.0021344022317606 5.1964865697587657
3241 1 2.0 12.0235338117452724 27.2376989567859340 8.8752263602073107
3242 1 2.0 11.3302065245451011 30.4421341281725155 13.0579785768365984
3243 1 2.0 13.6655805581741383 30.4421341281725155 11.0685468539117036
3244 1 2.0 9.6881597781162352 27.2376989567859340 10.8646580831322090
3245 2 4.0 9.3414961345161505 28.8399165424792265 8.7732819748175643
3246 2 4.0 11.6768701681451876 28.8399165424792265 10.9666024685219554
3247 2 4.0 9.3414961345161505 25.6354813710926450 8.7732819748175643
3248 2 4.0 11.6768701681451876 25.6354813710926450 10.9666024685219554
3249 3 -2.0 11.5184839305535434 27.2376989567859340 11.4704493773169283
3250 3 -2.0 11.8352564057368337 30.4421341281725155 10.4627555597269826
3251 3 -2.0 9.4998823721077947 30.4421341281725155 9.2771288836125372
3252 3 -2.0 13.8538579641825805 27.2376989567859340 12.6560760534313737
3253 3 -2.0 10.2464109197616509 29.2065695736183386 11.7764480508719398
3254 3 -2.0 13.1073294165287244 28.4732635113401109 10.1567568861719728
3255 3 -2.0 10.7719553828996872 28.4732635113401109 9.5831275571675469
3256 3 -2.0 12.5817849533906898 29.2065695736183386 12.3500773798763621
3257 3 -2.0 13.1073294165287244 26.0021344022317606 10.1567568861719728
3258 3 -2.0 10.2464109197616509 31.6776986827266924 11.7764480508719398
3259 3 -2.0 12.5817849533906898 31.6776986827266924 12.3500773798763621
3260 3 -2.0 10.7719553828996872 26.0021344022317606 9.5831275571675469
3261 1 2.0 12.0235338117452724 27.2376989567859340 13.2618673476160929
3262 1 2.0 11.3302065245451011 30.4421341281725155 17.4446195642453823
3263 1 2.0 13.6655805581741383 30.4421341281725155 15.4551878413204857
3264 1 2.0 9.6881597781162352 27.2376989567859340 15.2512990705409912
3265 2 4.0 9.3414961345161505 28.8399165424792265 13.1599229622263465
3266 2 4.0 11.6768701681451876 28.8399165424792265 15.3532434559307376
3267 2 4.0 9.3414961345161505 25.6354813710926450 13.1599229622263465
3268 2 4.0 11.6768701681451876 25.6354813710926450 15.3532434559307376
3269 3 -2.0 11.5184839305535434 27.2376989567859340 15.8570903647257104
3270 3 -2.0 11.8352564057368337 30.4421341281725155 14.8493965471357647
3271 3 -2.0 9.4998823721077947 30.4421341281725155 13.6637698710213193
3272 3 -2.0 13.8538579641825805 27.2376989567859340 17.0427170408401558
3273 3 -2.0 10.2464109197616509 29.2065695736183386 16.1630890382807237
3274 3 -2.0 13.1073294165287244 28.4732635113401109 14.5433978735807550
3275 3 -2.0 10.7719553828996872 28.4732635113401109 13.9697685445763291
3276 3 -2.0 12.5817849533906898 29.2065695736183386 16.7367183672851425
3277 3 -2.0 13.1073294165287244 26.0021344022317606 14.5433978735807550
3278 3 -2.0 10.2464109197616509 31.6776986827266924 16.1630890382807237
3279 3 -2.0 12.5817849533906898 31.6776986827266924 16.7367183672851425
3280 3 -2.0 10.7719553828996872 26.0021344022317606 13.9697685445763291
3281 1 2.0 12.0235338117452724 27.2376989567859340 17.6485083350248750
3282 1 2.0 11.3302065245451011 30.4421341281725155 21.8312605516541645
3283 1 2.0 13.6655805581741383 30.4421341281725155 19.8418288287292661
3284 1 2.0 9.6881597781162352 27.2376989567859340 19.6379400579497734
3285 2 4.0 9.3414961345161505 28.8399165424792265 17.5465639496351287
3286 2 4.0 11.6768701681451876 28.8399165424792265 19.7398844433395197
3287 2 4.0 9.3414961345161505 25.6354813710926450 17.5465639496351287
3288 2 4.0 11.6768701681451876 25.6354813710926450 19.7398844433395197
3289 3 -2.0 11.5184839305535434 27.2376989567859340 20.2437313521344926
3290 3 -2.0 11.8352564057368337 30.4421341281725155 19.2360375345445433
3291 3 -2.0 9.4998823721077947 30.4421341281725155 18.0504108584301051
3292 3 -2.0 13.8538579641825805 27.2376989567859340 21.4293580282489380
3293 3 -2.0 10.2464109197616509 29.2065695736183386 20.5497300256895024
3294 3 -2.0 13.1073294165287244 28.4732635113401109 18.9300388609895371
3295 3 -2.0 10.7719553828996872 28.4732635113401109 18.3564095319851113
3296 3 -2.0 12.5817849533906898 29.2065695736183386 21.1233593546939282
3297 3 -2.0 13.1073294165287244 26.0021344022317606 18.9300388609895371
3298 3 -2.0 10.2464109197616509 31.6776986827266924 20.5497300256895024
3299 3 -2.0 12.5817849533906898 31.6776986827266924 21.1233593546939282
3300 3 -2.0 10.7719553828996872 26.0021344022317606 18.3564095319851113
3301 1 2.0 12.0235338117452724 27.2376989567859340 22.0351493224336572
3302 1 2.0 11.3302065245451011 30.4421341281725155 26.2179015390629466
3303 1 2.0 13.6655805581741383 30.4421341281725155 24.2284698161380483
3304 1 2.0 9.6881597781162352 27.2376989567859340 24.0245810453585555
3305 2 4.0 9.3414961345161505 28.8399165424792265 21.9332049370439108
3306 2 4.0 11.6768701681451876 28.8399165424792265 24.1265254307483019
3307 2 4.0 9.3414961345161505 25.6354813710926450 21.9332049370439108
3308 2 4.0 11.6768701681451876 25.6354813710926450 24.1265254307483019
3309 3 -2.0 11.5184839305535434 27.2376989567859340 24.6303723395432748
3310 3 -2.0 11.8352564057368337 30.4421341281725155 23.6226785219533255
3311 3 -2.0 9.4998823721077947 30.4421341281725155 22.4370518458388872
3312 3 -2.0 13.8538579641825805 27.2376989567859340 25.8159990156577202
3313 3 -2.0 10.2464109197616509 29.2065695736183386 24.9363710130982845
3314 3 -2.0 13.1073294165287244 28.4732635113401109 23.3166798483983193
3315 3 -2.0 10.7719553828996872 28.4732635113401109 22.7430505193938934
3316 3 -2.0 12.5817849533906898 29.2065695736183386 25.5100003421027104
3317 3 -2.0 13.1073294165287244 26.0021344022317606 23.3166798483983193
3318 3 -2.0 10.2464109197616509 31.6776986827266924 24.9363710130982845
3319 3 -2.0 12.5817849533906898 31.6776986827266924 25.5100003421027104
3320 3 -2.0 10.7719553828996872 26.0021344022317606 22.7430505193938934
3321 1 2.0 12.0235338117452724 27.2376989567859340 26.4217903098424394
3322 1 2.0 11.3302065245451011 30.4421341281725155 30.6045425264717288
3323 1 2.0 13.6655805581741383 30.4421341281725155 28.6151108035468305
3324 1 2.0 9.6881597781162352 27.2376989567859340 28.4112220327673377
3325 2 4.0 9.3414961345161505 28.8399165424792265 26.3198459244526930
3326 2 4.0 11.6768701681451876 28.8399165424792265 28.5131664181570841
3327 2 4.0 9.3414961345161505 25.6354813710926450 26.3198459244526930
3328 2 4.0 11.6768701681451876 25.6354813710926450 28.5131664181570841
3329 3 -2.0 11.5184839305535434 27.2376989567859340 29.0170133269520569
3330 3 -2.0 11.8352564057368337 30.4421341281725155 28.0093195093621077
3331 3 -2.0 9.4998823721077947 30.4421341281725155 26.8236928332476694
3332 3 -2.0 13.8538579641825805 27.2376989567859340 30.2026400030665023
3333 3 -2.0 10.2464109197616509 29.2065695736183386 29.3230120005070667
3334 3 -2.0 13.1073294165287244 28.4732635113401109 27.7033208358071015
3335 3 -2.0 10.7719553828996872 28.4732635113401109 27.1296915068026756
3336 3 -2.0 12.5817849533906898 29.2065695736183386 29.8966413295114926
3337 3 -2.0 13.1073294165287244 26.0021344022317606 27.7033208358071015
3338 3 -2.0 10.2464109197616509 31.6776986827266924 29.3230120005070667
3339 3 -2.0 12.5817849533906898 31.6776986827266924 29.8966413295114926
3340 3 -2.0 10.7719553828996872 26.0021344022317606 27.1296915068026756
3341 1 2.0 12.0235338117452724 27.2376989567859340 30.8084312972512215
3342 1 2.0 11.3302065245451011 30.4421341281725155 34.9911835138805074
3343 1 2.0 13.6655805581741383 30.4421341281725155 33.0017517909556162
3344 1 2.0 9.6881597781162352 27.2376989567859340 32.7978630201761163
3345 2 4.0 9.3414961345161505 28.8399165424792265 30.7064869118614752
3346 2 4.0 11.6768701681451876 28.8399165424792265 32.8998074055658662
3347 2 4.0 9.3414961345161505 25.6354813710926450 30.7064869118614752
3348 2 4.0 11.6768701681451876 25.6354813710926450 32.8998074055658662
3349 3 -2.0 11.5184839305535434 27.2376989567859340 33.4036543143608355
3350 3 -2.0 11.8352564057368337 30.4421341281725155 32.3959604967708898
3351 3 -2.0 9.4998823721077947 30.4421341281725155 31.2103338206564516
3352 3 -2.0 13.8538579641825805 27.2376989567859340 34.5892809904752880
3353 3 -2.0 10.2464109197616509 29.2065695736183386 33.7096529879158524
3354 3 -2.0 13.1073294165287244 28.4732635113401109 32.0899618232158801
3355 3 -2.0 10.7719553828996872 28.4732635113401109 31.5163324942114578
3356 3 -2.0 12.5817849533906898 29.2065695736183386 34.2832823169202712
3357 3 -2.0 13.1073294165287244 26.0021344022317606 32.0899618232158801
3358 3 -2.0 10.2464109197616509 31.6776986827266924 33.7096529879158524
3359 3 -2.0 12.5817849533906898 31.6776986827266924 34.2832823169202712
3360 3 -2.0 10.7719553828996872 26.0021344022317606 31.5163324942114578
3361 1 2.0 12.0235338117452724 33.6465692995590970 0.1019443853897463
3362 1 2.0 11.3302065245451011 36.8510044709456750 4.2846966020190349
3363 1 2.0 13.6655805581741383 36.8510044709456750 2.2952648790941383
3364 1 2.0 9.6881597781162352 33.6465692995590970 2.0913761083146447
3365 2 4.0 9.3414961345161505 35.2487868852523860 0.0000000000000000
3366 2 4.0 11.6768701681451876 35.2487868852523860 2.1933204937043911
3367 2 4.0 9.3414961345161505 32.0443517138658081 0.0000000000000000
3368 2 4.0 11.6768701681451876 32.0443517138658081 2.1933204937043911
3369 3 -2.0 11.5184839305535434 33.6465692995590970 2.6971674024993644
3370 3 -2.0 11.8352564057368337 36.8510044709456750 1.6894735849094176
3371 3 -2.0 9.4998823721077947 36.8510044709456750 0.5038469087949736
3372 3 -2.0 13.8538579641825805 33.6465692995590970 3.8827940786138089
3373 3 -2.0 10.2464109197616509 35.6154399163915016 3.0031660760543750
3374 3 -2.0 13.1073294165287244 34.8821338541132704 1.3834749113544080
3375 3 -2.0 10.7719553828996872 34.8821338541132704 0.8098455823499836
3376 3 -2.0 12.5817849533906898 35.6154399163915016 3.5767954050587982
3377 3 -2.0 13.1073294165287244 32.4110047450049237 1.3834749113544080
3378 3 -2.0 10.2464109197616509 38.0865690254998555 3.0031660760543750
3379 3 -2.0 12.5817849533906898 38.0865690254998555 3.5767954050587982
3380 3 -2.0 10.7719553828996872 32.4110047450049237 0.8098455823499836
3381 1 2.0 12.0235338117452724 33.6465692995590970 4.4885853727985285
3382 1 2.0 11.3302065245451011 36.8510044709456750 8.6713375894278162
3383 1 2.0 13.6655805581741383 36.8510044709456750 6.6819058665029205
3384 1 2.0 9.6881597781162352 33.6465692995590970 6.4780170957234269
3385 2 4.0 9.3414961345161505 35.2487868852523860 4.3866409874087822
3386 2 4.0 11.6768701681451876 35.2487868852523860 6.5799614811131732
3387 2 4.0 9.3414961345161505 32.0443517138658081 4.3866409874087822
3388 2 4.0 11.6768701681451876 32.0443517138658081 6.5799614811131732
3389 3 -2.0 11.5184839305535434 33.6465692995590970 7.0838083899081470
3390 3 -2.0 11.8352564057368337 36.8510044709456750 6.0761145723181995
3391 3 -2.0 9.4998823721077947 36.8510044709456750 4.8904878962037559
3392 3 -2.0 13.8538579641825805 33.6465692995590970 8.2694350660225915
3393 3 -2.0 10.2464109197616509 35.6154399163915016 7.3898070634631576
3394 3 -2.0 13.1073294165287244 34.8821338541132704 5.7701158987631906
3395 3 -2.0 10.7719553828996872 34.8821338541132704 5.1964865697587657
3396 3 -2.0 12.5817849533906898 35.6154399163915016 7.9634363924675799
3397 3 -2.0 13.1073294165287244 32.4110047450049237 5.7701158987631906
3398 3 -2.0 10.2464109197616509 38.0865690254998555 7.3898070634631576
3399 3 -2.0 12.5817849533906898 38.0865690254998555 7.9634363924675799
3400 3 -2.0 10.7719553828996872 32.4110047450049237 5.1964865697587657
3401 1 2.0 12.0235338117452724 33.6465692995590970 8.8752263602073107
3402 1 2.0 11.3302065245451011 36.8510044709456750 13.0579785768365984
3403 1 2.0 13.6655805581741383 36.8510044709456750 11.0685468539117036
3404 1 2.0 9.6881597781162352 33.6465692995590970 10.8646580831322090
3405 2 4.0 9.3414961345161505 35.2487868852523860 8.7732819748175643
3406 2 4.0 11.6768701681451876 35.2487868852523860 10.9666024685219554
3407 2 4.0 9.3414961345161505 32.0443517138658081 8.7732819748175643
3408 2 4.0 11.6768701681451876 32.0443517138658081 10.9666024685219554
3409 3 -2.0 11.5184839305535434 33.6465692995590970 11.4704493773169283
3410 3 -2.0 11.8352564057368337 36.8510044709456750 10.4627555597269826
3411 3 -2.0 9.4998823721077947 36.8510044709456750 9.2771288836125372
3412 3 -2.0 13.8538579641825805 33.6465692995590970 12.6560760534313737
3413 3 -2.0 10.2464109197616509 35.6154399163915016 11.7764480508719398
3414 3 -2.0 13.1073294165287244 34.8821338541132704 10.1567568861719728
3415 3 -2.0 10.7719553828996872 34.8821338541132704 9.5831275571675469
3416 3 -2.0 12.5817849533906898 35.6154399163915016 12.3500773798763621
3417 3 -2.0 13.1073294165287244 32.4110047450049237 10.1567568861719728
3418 3 -2.0 10.2464109197616509 38.0865690254998555 11.7764480508719398
3419 3 -2.0 12.5817849533906898 38.0865690254998555 12.3500773798763621
3420 3 -2.0 10.7719553828996872 32.4110047450049237 9.5831275571675469
3421 1 2.0 12.0235338117452724 33.6465692995590970 13.2618673476160929
3422 1 2.0 11.3302065245451011 36.8510044709456750 17.4446195642453823
3423 1 2.0 13.6655805581741383 36.8510044709456750 15.4551878413204857
3424 1 2.0 9.6881597781162352 33.6465692995590970 15.2512990705409912
3425 2 4.0 9.3414961345161505 35.2487868852523860 13.1599229622263465
3426 2 4.0 11.6768701681451876 35.2487868852523860 15.3532434559307376
3427 2 4.0 9.3414961345161505 32.0443517138658081 13.1599229622263465
3428 2 4.0 11.6768701681451876 32.0443517138658081 15.3532434559307376
3429 3 -2.0 11.5184839305535434 33.6465692995590970 15.8570903647257104
3430 3 -2.0 11.8352564057368337 36.8510044709456750 14.8493965471357647
3431 3 -2.0 9.4998823721077947 36.8510044709456750 13.6637698710213193
3432 3 -2.0 13.8538579641825805 33.6465692995590970 17.0427170408401558
3433 3 -2.0 10.2464109197616509 35.6154399163915016 16.1630890382807237
3434 3 -2.0 13.1073294165287244 34.8821338541132704 14.5433978735807550
3435 3 -2.0 10.7719553828996872 34.8821338541132704 13.9697685445763291
3436 3 -2.0 12.5817849533906898 35.6154399163915016 16.7367183672851425
3437 3 -2.0 13.1073294165287244 32.4110047450049237 14.5433978735807550
3438 3 -2.0 10.2464109197616509 38.0865690254998555 16.1630890382807237
3439 3 -2.0 12.5817849533906898 38.0865690254998555 16.7367183672851425
3440 3 -2.0 10.7719553828996872 32.4110047450049237 13.9697685445763291
3441 1 2.0 12.0235338117452724 33.6465692995590970 17.6485083350248750
3442 1 2.0 11.3302065245451011 36.8510044709456750 21.8312605516541645
3443 1 2.0 13.6655805581741383 36.8510044709456750 19.8418288287292661
3444 1 2.0 9.6881597781162352 33.6465692995590970 19.6379400579497734
3445 2 4.0 9.3414961345161505 35.2487868852523860 17.5465639496351287
3446 2 4.0 11.6768701681451876 35.2487868852523860 19.7398844433395197
3447 2 4.0 9.3414961345161505 32.0443517138658081 17.5465639496351287
3448 2 4.0 11.6768701681451876 32.0443517138658081 19.7398844433395197
3449 3 -2.0 11.5184839305535434 33.6465692995590970 20.2437313521344926
3450 3 -2.0 11.8352564057368337 36.8510044709456750 19.2360375345445433
3451 3 -2.0 9.4998823721077947 36.8510044709456750 18.0504108584301051
3452 3 -2.0 13.8538579641825805 33.6465692995590970 21.4293580282489380
3453 3 -2.0 10.2464109197616509 35.6154399163915016 20.5497300256895024
3454 3 -2.0 13.1073294165287244 34.8821338541132704 18.9300388609895371
3455 3 -2.0 10.7719553828996872 34.8821338541132704 18.3564095319851113
3456 3 -2.0 12.5817849533906898 35.6154399163915016 21.1233593546939282
3457 3 -2.0 13.1073294165287244 32.4110047450049237 18.9300388609895371
3458 3 -2.0 10.2464109197616509 38.0865690254998555 20.5497300256895024
3459 3 -2.0 12.5817849533906898 38.0865690254998555 21.1233593546939282
3460 3 -2.0 10.7719553828996872 32.4110047450049237 18.3564095319851113
3461 1 2.0 12.0235338117452724 33.6465692995590970 22.0351493224336572
3462 1 2.0 11.3302065245451011 36.8510044709456750 26.2179015390629466
3463 1 2.0 13.6655805581741383 36.8510044709456750 24.2284698161380483
3464 1 2.0 9.6881597781162352 33.6465692995590970 24.0245810453585555
3465 2 4.0 9.3414961345161505 35.2487868852523860 21.9332049370439108
3466 2 4.0 11.6768701681451876 35.2487868852523860 24.1265254307483019
3467 2 4.0 9.3414961345161505 32.0443517138658081 21.9332049370439108
3468 2 4.0 11.6768701681451876 32.0443517138658081 24.1265254307483019
3469 3 -2.0 11.5184839305535434 33.6465692995590970 24.6303723395432748
3470 3 -2.0 11.8352564057368337 36.8510044709456750 23.6226785219533255
3471 3 -2.0 9.4998823721077947 36.8510044709456750 22.4370518458388872
3472 3 -2.0 13.8538579641825805 33.6465692995590970 25.8159990156577202
3473 3 -2.0 10.2464109197616509 35.6154399163915016 24.9363710130982845
3474 3 -2.0 13.1073294165287244 34.8821338541132704 23.3166798483983193
3475 3 -2.0 10.7719553828996872 34.8821338541132704 22.7430505193938934
3476 3 -2.0 12.5817849533906898 35.6154399163915016 25.5100003421027104
3477 3 -2.0 13.1073294165287244 32.4110047450049237 23.3166798483983193
3478 3 -2.0 10.2464109197616509 38.0865690254998555 24.9363710130982845
3479 3 -2.0 12.5817849533906898 38.0865690254998555 25.5100003421027104
3480 3 -2.0 10.7719553828996872 32.4110047450049237 22.7430505193938934
3481 1 2.0 12.0235338117452724 33.6465692995590970 26.4217903098424394
3482 1 2.0 11.3302065245451011 36.8510044709456750 30.6045425264717288
3483 1 2.0 13.6655805581741383 36.8510044709456750 28.6151108035468305
3484 1 2.0 9.6881597781162352 33.6465692995590970 28.4112220327673377
3485 2 4.0 9.3414961345161505 35.2487868852523860 26.3198459244526930
3486 2 4.0 11.6768701681451876 35.2487868852523860 28.5131664181570841
3487 2 4.0 9.3414961345161505 32.0443517138658081 26.3198459244526930
3488 2 4.0 11.6768701681451876 32.0443517138658081 28.5131664181570841
3489 3 -2.0 11.5184839305535434 33.6465692995590970 29.0170133269520569
3490 3 -2.0 11.8352564057368337 36.8510044709456750 28.0093195093621077
3491 3 -2.0 9.4998823721077947 36.8510044709456750 26.8236928332476694
3492 3 -2.0 13.8538579641825805 33.6465692995590970 30.2026400030665023
3493 3 -2.0 10.2464109197616509 35.6154399163915016 29.3230120005070667
3494 3 -2.0 13.1073294165287244 34.8821338541132704 27.7033208358071015
3495 3 -2.0 10.7719553828996872 34.8821338541132704 27.1296915068026756
3496 3 -2.0 12.5817849533906898 35.6154399163915016 29.8966413295114926
3497 3 -2.0 13.1073294165287244 32.4110047450049237 27.7033208358071015
3498 3 -2.0 10.2464109197616509 38.0865690254998555 29.3230120005070667
3499 3 -2.0 12.5817849533906898 38.0865690254998555 29.8966413295114926
3500 3 -2.0 10.7719553828996872 32.4110047450049237 27.1296915068026756
3501 1 2.0 12.0235338117452724 33.6465692995590970 30.8084312972512215
3502 1 2.0 11.3302065245451011 36.8510044709456750 34.9911835138805074
3503 1 2.0 13.6655805581741383 36.8510044709456750 33.0017517909556162
3504 1 2.0 9.6881597781162352 33.6465692995590970 32.7978630201761163
3505 2 4.0 9.3414961345161505 35.2487868852523860 30.7064869118614752
3506 2 4.0 11.6768701681451876 35.2487868852523860 32.8998074055658662
3507 2 4.0 9.3414961345161505 32.0443517138658081 30.7064869118614752
3508 2 4.0 11.6768701681451876 32.0443517138658081 32.8998074055658662
3509 3 -2.0 11.5184839305535434 33.6465692995590970 33.4036543143608355
3510 3 -2.0 11.8352564057368337 36.8510044709456750 32.3959604967708898
3511 3 -2.0 9.4998823721077947 36.8510044709456750 31.2103338206564516
3512 3 -2.0 13.8538579641825805 33.6465692995590970 34.5892809904752880
3513 3 -2.0 10.2464109197616509 35.6154399163915016 33.7096529879158524
3514 3 -2.0 13.1073294165287244 34.8821338541132704 32.0899618232158801
3515 3 -2.0 10.7719553828996872 34.8821338541132704 31.5163324942114578
3516 3 -2.0 12.5817849533906898 35.6154399163915016 34.2832823169202712
3517 3 -2.0 13.1073294165287244 32.4110047450049237 32.0899618232158801
3518 3 -2.0 10.2464109197616509 38.0865690254998555 33.7096529879158524
3519 3 -2.0 12.5817849533906898 38.0865690254998555 34.2832823169202712
3520 3 -2.0 10.7719553828996872 32.4110047450049237 31.5163324942114578
3521 1 2.0 12.0235338117452724 40.0554396423322601 0.1019443853897463
3522 1 2.0 11.3302065245451011 43.2598748137188380 4.2846966020190349
3523 1 2.0 13.6655805581741383 43.2598748137188380 2.2952648790941383
3524 1 2.0 9.6881597781162352 40.0554396423322601 2.0913761083146447
3525 2 4.0 9.3414961345161505 41.6576572280255490 0.0000000000000000
3526 2 4.0 11.6768701681451876 41.6576572280255490 2.1933204937043911
3527 2 4.0 9.3414961345161505 38.4532220566389640 0.0000000000000000
3528 2 4.0 11.6768701681451876 38.4532220566389640 2.1933204937043911
3529 3 -2.0 11.5184839305535434 40.0554396423322601 2.6971674024993644
3530 3 -2.0 11.8352564057368337 43.2598748137188380 1.6894735849094176
3531 3 -2.0 9.4998823721077947 43.2598748137188380 0.5038469087949736
3532 3 -2.0 13.8538579641825805 40.0554396423322601 3.8827940786138089
3533 3 -2.0 10.2464109197616509 42.0243102591646647 3.0031660760543750
3534 3 -2.0 13.1073294165287244 41.2910041968864334 1.3834749113544080
3535 3 -2.0 10.7719553828996872 41.2910041968864334 0.8098455823499836
3536 3 -2.0 12.5817849533906898 42.0243102591646647 3.5767954050587982
3537 3 -2.0 13.1073294165287244 38.8198750877780796 1.3834749113544080
3538 3 -2.0 10.2464109197616509 44.4954393682730114 3.0031660760543750
3539 3 -2.0 12.5817849533906898 44.4954393682730114 3.5767954050587982
3540 3 -2.0 10.7719553828996872 38.8198750877780796 0.8098455823499836
3541 1 2.0 12.0235338117452724 40.0554396423322601 4.4885853727985285
3542 1 2.0 11.3302065245451011 43.2598748137188380 8.6713375894278162
3543 1 2.0 13.6655805581741383 43.2598748137188380 6.6819058665029205
3544 1 2.0 9.6881597781162352 40.0554396423322601 6.4780170957234269
3545 2 4.0 9.3414961345161505 41.6576572280255490 4.3866409874087822
3546 2 4.0 11.6768701681451876 41.6576572280255490 6.5799614811131732
3547 2 4.0 9.3414961345161505 38.4532220566389640 4.3866409874087822
3548 2 4.0 11.6768701681451876 38.4532220566389640 6.5799614811131732
3549 3 -2.0 11.5184839305535434 40.0554396423322601 7.0838083899081470
3550 3 -2.0 11.8352564057368337 43.2598748137188380 6.0761145723181995
3551 3 -2.0 9.4998823721077947 43.2598748137188380 4.8904878962037559
3552 3 -2.0 13.8538579641825805 40.0554396423322601 8.2694350660225915
3553 3 -2.0 10.2464109197616509 42.0243102591646647 7.3898070634631576
3554 3 -2.0 13.1073294165287244 41.2910041968864334 5.7701158987631906
3555 3 -2.0 10.7719553828996872 41.2910041968864334 5.1964865697587657
3556 3 -2.0 12.5817849533906898 42.0243102591646647 7.9634363924675799
3557 3 -2.0 13.1073294165287244 38.8198750877780796 5.7701158987631906
3558 3 -2.0 10.2464109197616509 44.4954393682730114 7.3898070634631576
3559 3 -2.0 12.5817849533906898 44.4954393682730114 7.9634363924675799
3560 3 -2.0 10.7719553828996872 38.8198750877780796 5.1964865697587657
3561 1 2.0 12.0235338117452724 40.0554396423322601 8.8752263602073107
3562 1 2.0 11.3302065245451011 43.2598748137188380 13.0579785768365984
3563 1 2.0 13.6655805581741383 43.2598748137188380 11.0685468539117036
3564 1 2.0 9.6881597781162352 40.0554396423322601 10.8646580831322090
3565 2 4.0 9.3414961345161505 41.6576572280255490 8.7732819748175643
3566 2 4.0 11.6768701681451876 41.6576572280255490 10.9666024685219554
3567 2 4.0 9.3414961345161505 38.4532220566389640 8.7732819748175643
3568 2 4.0 11.6768701681451876 38.4532220566389640 10.9666024685219554
3569 3 -2.0 11.5184839305535434 40.0554396423322601 11.4704493773169283
3570 3 -2.0 11.8352564057368337 43.2598748137188380 10.4627555597269826
3571 3 -2.0 9.4998823721077947 43.2598748137188380 9.2771288836125372
3572 3 -2.0 13.8538579641825805 40.0554396423322601 12.6560760534313737
3573 3 -2.0 10.2464109197616509 42.0243102591646647 11.7764480508719398
3574 3 -2.0 13.1073294165287244 41.2910041968864334 10.1567568861719728
3575 3 -2.0 10.7719553828996872 41.2910041968864334 9.5831275571675469
3576 3 -2.0 12.5817849533906898 42.0243102591646647 12.3500773798763621
3577 3 -2.0 13.1073294165287244 38.8198750877780796 10.1567568861719728
3578 3 -2.0 10.2464109197616509 44.4954393682730114 11.7764480508719398
3579 3 -2.0 12.5817849533906898 44.4954393682730114 12.3500773798763621
3580 3 -2.0 10.7719553828996872 38.8198750877780796 9.5831275571675469
3581 1 2.0 12.0235338117452724 40.0554396423322601 13.2618673476160929
3582 1 2.0 11.3302065245451011 43.2598748137188380 17.4446195642453823
3583 1 2.0 13.6655805581741383 43.2598748137188380 15.4551878413204857
3584 1 2.0 9.6881597781162352 40.0554396423322601 15.2512990705409912
3585 2 4.0 9.3414961345161505 41.6576572280255490 13.1599229622263465
3586 2 4.0 11.6768701681451876 41.6576572280255490 15.3532434559307376
3587 2 4.0 9.3414961345161505 38.4532220566389640 13.1599229622263465
3588 2 4.0 11.6768701681451876 38.4532220566389640 15.3532434559307376
3589 3 -2.0 11.5184839305535434 40.0554396423322601 15.8570903647257104
3590 3 -2.0 11.8352564057368337 43.2598748137188380 14.8493965471357647
3591 3 -2.0 9.4998823721077947 43.2598748137188380 13.6637698710213193
3592 3 -2.0 13.8538579641825805 40.0554396423322601 17.0427170408401558
3593 3 -2.0 10.2464109197616509 42.0243102591646647 16.1630890382807237
3594 3 -2.0 13.1073294165287244 41.2910041968864334 14.5433978735807550
3595 3 -2.0 10.7719553828996872 41.2910041968864334 13.9697685445763291
3596 3 -2.0 12.5817849533906898 42.0243102591646647 16.7367183672851425
3597 3 -2.0 13.1073294165287244 38.8198750877780796 14.5433978735807550
3598 3 -2.0 10.2464109197616509 44.4954393682730114 16.1630890382807237
3599 3 -2.0 12.5817849533906898 44.4954393682730114 16.7367183672851425
3600 3 -2.0 10.7719553828996872 38.8198750877780796 13.9697685445763291
3601 1 2.0 12.0235338117452724 40.0554396423322601 17.6485083350248750
3602 1 2.0 11.3302065245451011 43.2598748137188380 21.8312605516541645
3603 1 2.0 13.6655805581741383 43.2598748137188380 19.8418288287292661
3604 1 2.0 9.6881597781162352 40.0554396423322601 19.6379400579497734
3605 2 4.0 9.3414961345161505 41.6576572280255490 17.5465639496351287
3606 2 4.0 11.6768701681451876 41.6576572280255490 19.7398844433395197
3607 2 4.0 9.3414961345161505 38.4532220566389640 17.5465639496351287
3608 2 4.0 11.6768701681451876 38.4532220566389640 19.7398844433395197
3609 3 -2.0 11.5184839305535434 40.0554396423322601 20.2437313521344926
3610 3 -2.0 11.8352564057368337 43.2598748137188380 19.2360375345445433
3611 3 -2.0 9.4998823721077947 43.2598748137188380 18.0504108584301051
3612 3 -2.0 13.8538579641825805 40.0554396423322601 21.4293580282489380
3613 3 -2.0 10.2464109197616509 42.0243102591646647 20.5497300256895024
3614 3 -2.0 13.1073294165287244 41.2910041968864334 18.9300388609895371
3615 3 -2.0 10.7719553828996872 41.2910041968864334 18.3564095319851113
3616 3 -2.0 12.5817849533906898 42.0243102591646647 21.1233593546939282
3617 3 -2.0 13.1073294165287244 38.8198750877780796 18.9300388609895371
3618 3 -2.0 10.2464109197616509 44.4954393682730114 20.5497300256895024
3619 3 -2.0 12.5817849533906898 44.4954393682730114 21.1233593546939282
3620 3 -2.0 10.7719553828996872 38.8198750877780796 18.3564095319851113
3621 1 2.0 12.0235338117452724 40.0554396423322601 22.0351493224336572
3622 1 2.0 11.3302065245451011 43.2598748137188380 26.2179015390629466
3623 1 2.0 13.6655805581741383 43.2598748137188380 24.2284698161380483
3624 1 2.0 9.6881597781162352 40.0554396423322601 24.0245810453585555
3625 2 4.0 9.3414961345161505 41.6576572280255490 21.9332049370439108
3626 2 4.0 11.6768701681451876 41.6576572280255490 24.1265254307483019
3627 2 4.0 9.3414961345161505 38.4532220566389640 21.9332049370439108
3628 2 4.0 11.6768701681451876 38.4532220566389640 24.1265254307483019
3629 3 -2.0 11.5184839305535434 40.0554396423322601 24.6303723395432748
3630 3 -2.0 11.8352564057368337 43.2598748137188380 23.6226785219533255
3631 3 -2.0 9.4998823721077947 43.2598748137188380 22.4370518458388872
3632 3 -2.0 13.8538579641825805 40.0554396423322601 25.8159990156577202
3633 3 -2.0 10.2464109197616509 42.0243102591646647 24.9363710130982845
3634 3 -2.0 13.1073294165287244 41.2910041968864334 23.3166798483983193
3635 3 -2.0 10.7719553828996872 41.2910041968864334 22.7430505193938934
3636 3 -2.0 12.5817849533906898 42.0243102591646647 25.5100003421027104
3637 3 -2.0 13.1073294165287244 38.8198750877780796 23.3166798483983193
3638 3 -2.0 10.2464109197616509 44.4954393682730114 24.9363710130982845
3639 3 -2.0 12.5817849533906898 44.4954393682730114 25.5100003421027104
3640 3 -2.0 10.7719553828996872 38.8198750877780796 22.7430505193938934
3641 1 2.0 12.0235338117452724 40.0554396423322601 26.4217903098424394
3642 1 2.0 11.3302065245451011 43.2598748137188380 30.6045425264717288
3643 1 2.0 13.6655805581741383 43.2598748137188380 28.6151108035468305
3644 1 2.0 9.6881597781162352 40.0554396423322601 28.4112220327673377
3645 2 4.0 9.3414961345161505 41.6576572280255490 26.3198459244526930
3646 2 4.0 11.6768701681451876 41.6576572280255490 28.5131664181570841
3647 2 4.0 9.3414961345161505 38.4532220566389640 26.3198459244526930
3648 2 4.0 11.6768701681451876 38.4532220566389640 28.5131664181570841
3649 3 -2.0 11.5184839305535434 40.0554396423322601 29.0170133269520569
3650 3 -2.0 11.8352564057368337 43.2598748137188380 28.0093195093621077
3651 3 -2.0 9.4998823721077947 43.2598748137188380 26.8236928332476694
3652 3 -2.0 13.8538579641825805 40.0554396423322601 30.2026400030665023
3653 3 -2.0 10.2464109197616509 42.0243102591646647 29.3230120005070667
3654 3 -2.0 13.1073294165287244 41.2910041968864334 27.7033208358071015
3655 3 -2.0 10.7719553828996872 41.2910041968864334 27.1296915068026756
3656 3 -2.0 12.5817849533906898 42.0243102591646647 29.8966413295114926
3657 3 -2.0 13.1073294165287244 38.8198750877780796 27.7033208358071015
3658 3 -2.0 10.2464109197616509 44.4954393682730114 29.3230120005070667
3659 3 -2.0 12.5817849533906898 44.4954393682730114 29.8966413295114926
3660 3 -2.0 10.7719553828996872 38.8198750877780796 27.1296915068026756
3661 1 2.0 12.0235338117452724 40.0554396423322601 30.8084312972512215
3662 1 2.0 11.3302065245451011 43.2598748137188380 34.9911835138805074
3663 1 2.0 13.6655805581741383 43.2598748137188380 33.0017517909556162
3664 1 2.0 9.6881597781162352 40.0554396423322601 32.7978630201761163
3665 2 4.0 9.3414961345161505 41.6576572280255490 30.7064869118614752
3666 2 4.0 11.6768701681451876 41.6576572280255490 32.8998074055658662
3667 2 4.0 9.3414961345161505 38.4532220566389640 30.7064869118614752
3668 2 4.0 11.6768701681451876 38.4532220566389640 32.8998074055658662
3669 3 -2.0 11.5184839305535434 40.0554396423322601 33.4036543143608355
3670 3 -2.0 11.8352564057368337 43.2598748137188380 32.3959604967708898
3671 3 -2.0 9.4998823721077947 43.2598748137188380 31.2103338206564516
3672 3 -2.0 13.8538579641825805 40.0554396423322601 34.5892809904752880
3673 3 -2.0 10.2464109197616509 42.0243102591646647 33.7096529879158524
3674 3 -2.0 13.1073294165287244 41.2910041968864334 32.0899618232158801
3675 3 -2.0 10.7719553828996872 41.2910041968864334 31.5163324942114578
3676 3 -2.0 12.5817849533906898 42.0243102591646647 34.2832823169202712
3677 3 -2.0 13.1073294165287244 38.8198750877780796 32.0899618232158801
3678 3 -2.0 10.2464109197616509 44.4954393682730114 33.7096529879158524
3679 3 -2.0 12.5817849533906898 44.4954393682730114 34.2832823169202712
3680 3 -2.0 10.7719553828996872 38.8198750877780796 31.5163324942114578
3681 1 2.0 12.0235338117452724 46.4643099851054160 0.1019443853897463
3682 1 2.0 11.3302065245451011 49.6687451564920011 4.2846966020190349
3683 1 2.0 13.6655805581741383 49.6687451564920011 2.2952648790941383
3684 1 2.0 9.6881597781162352 46.4643099851054160 2.0913761083146447
3685 2 4.0 9.3414961345161505 48.0665275707987121 0.0000000000000000
3686 2 4.0 11.6768701681451876 48.0665275707987121 2.1933204937043911
3687 2 4.0 9.3414961345161505 44.8620923994121270 0.0000000000000000
3688 2 4.0 11.6768701681451876 44.8620923994121270 2.1933204937043911
3689 3 -2.0 11.5184839305535434 46.4643099851054160 2.6971674024993644
3690 3 -2.0 11.8352564057368337 49.6687451564920011 1.6894735849094176
3691 3 -2.0 9.4998823721077947 49.6687451564920011 0.5038469087949736
3692 3 -2.0 13.8538579641825805 46.4643099851054160 3.8827940786138089
3693 3 -2.0 10.2464109197616509 48.4331806019378206 3.0031660760543750
3694 3 -2.0 13.1073294165287244 47.6998745396595965 1.3834749113544080
3695 3 -2.0 10.7719553828996872 47.6998745396595965 0.8098455823499836
3696 3 -2.0 12.5817849533906898 48.4331806019378206 3.5767954050587982
3697 3 -2.0 13.1073294165287244 45.2287454305512426 1.3834749113544080
3698 3 -2.0 10.2464109197616509 50.9043097110461744 3.0031660760543750
3699 3 -2.0 12.5817849533906898 50.9043097110461744 3.5767954050587982
3700 3 -2.0 10.7719553828996872 45.2287454305512426 0.8098455823499836
3701 1 2.0 12.0235338117452724 46.4643099851054160 4.4885853727985285
3702 1 2.0 11.3302065245451011 49.6687451564920011 8.6713375894278162
3703 1 2.0 13.6655805581741383 49.6687451564920011 6.6819058665029205
3704 1 2.0 9.6881597781162352 46.4643099851054160 6.4780170957234269
3705 2 4.0 9.3414961345161505 48.0665275707987121 4.3866409874087822
3706 2 4.0 11.6768701681451876 48.0665275707987121 6.5799614811131732
3707 2 4.0 9.3414961345161505 44.8620923994121270 4.3866409874087822
3708 2 4.0 11.6768701681451876 44.8620923994121270 6.5799614811131732
3709 3 -2.0 11.5184839305535434 46.4643099851054160 7.0838083899081470
3710 3 -2.0 11.8352564057368337 49.6687451564920011 6.0761145723181995
3711 3 -2.0 9.4998823721077947 49.6687451564920011 4.8904878962037559
3712 3 -2.0 13.8538579641825805 46.4643099851054160 8.2694350660225915
3713 3 -2.0 10.2464109197616509 48.4331806019378206 7.3898070634631576
3714 3 -2.0 13.1073294165287244 47.6998745396595965 5.7701158987631906
3715 3 -2.0 10.7719553828996872 47.6998745396595965 5.1964865697587657
3716 3 -2.0 12.5817849533906898 48.4331806019378206 7.9634363924675799
3717 3 -2.0 13.1073294165287244 45.2287454305512426 5.7701158987631906
3718 3 -2.0 10.2464109197616509 50.9043097110461744 7.3898070634631576
3719 3 -2.0 12.5817849533906898 50.9043097110461744 7.9634363924675799
3720 3 -2.0 10.7719553828996872 45.2287454305512426 5.1964865697587657
3721 1 2.0 12.0235338117452724 46.4643099851054160 8.8752263602073107
3722 1 2.0 11.3302065245451011 49.6687451564920011 13.0579785768365984
3723 1 2.0 13.6655805581741383 49.6687451564920011 11.0685468539117036
3724 1 2.0 9.6881597781162352 46.4643099851054160 10.8646580831322090
3725 2 4.0 9.3414961345161505 48.0665275707987121 8.7732819748175643
3726 2 4.0 11.6768701681451876 48.0665275707987121 10.9666024685219554
3727 2 4.0 9.3414961345161505 44.8620923994121270 8.7732819748175643
3728 2 4.0 11.6768701681451876 44.8620923994121270 10.9666024685219554
3729 3 -2.0 11.5184839305535434 46.4643099851054160 11.4704493773169283
3730 3 -2.0 11.8352564057368337 49.6687451564920011 10.4627555597269826
3731 3 -2.0 9.4998823721077947 49.6687451564920011 9.2771288836125372
3732 3 -2.0 13.8538579641825805 46.4643099851054160 12.6560760534313737
3733 3 -2.0 10.2464109197616509 48.4331806019378206 11.7764480508719398
3734 3 -2.0 13.1073294165287244 47.6998745396595965 10.1567568861719728
3735 3 -2.0 10.7719553828996872 47.6998745396595965 9.5831275571675469
3736 3 -2.0 12.5817849533906898 48.4331806019378206 12.3500773798763621
3737 3 -2.0 13.1073294165287244 45.2287454305512426 10.1567568861719728
3738 3 -2.0 10.2464109197616509 50.9043097110461744 11.7764480508719398
3739 3 -2.0 12.5817849533906898 50.9043097110461744 12.3500773798763621
3740 3 -2.0 10.7719553828996872 45.2287454305512426 9.5831275571675469
3741 1 2.0 12.0235338117452724 46.4643099851054160 13.2618673476160929
3742 1 2.0 11.3302065245451011 49.6687451564920011 17.4446195642453823
3743 1 2.0 13.6655805581741383 49.6687451564920011 15.4551878413204857
3744 1 2.0 9.6881597781162352 46.4643099851054160 15.2512990705409912
3745 2 4.0 9.3414961345161505 48.0665275707987121 13.1599229622263465
3746 2 4.0 11.6768701681451876 48.0665275707987121 15.3532434559307376
3747 2 4.0 9.3414961345161505 44.8620923994121270 13.1599229622263465
3748 2 4.0 11.6768701681451876 44.8620923994121270 15.3532434559307376
3749 3 -2.0 11.5184839305535434 46.4643099851054160 15.8570903647257104
3750 3 -2.0 11.8352564057368337 49.6687451564920011 14.8493965471357647
3751 3 -2.0 9.4998823721077947 49.6687451564920011 13.6637698710213193
3752 3 -2.0 13.8538579641825805 46.4643099851054160 17.0427170408401558
3753 3 -2.0 10.2464109197616509 48.4331806019378206 16.1630890382807237
3754 3 -2.0 13.1073294165287244 47.6998745396595965 14.5433978735807550
3755 3 -2.0 10.7719553828996872 47.6998745396595965 13.9697685445763291
3756 3 -2.0 12.5817849533906898 48.4331806019378206 16.7367183672851425
3757 3 -2.0 13.1073294165287244 45.2287454305512426 14.5433978735807550
3758 3 -2.0 10.2464109197616509 50.9043097110461744 16.1630890382807237
3759 3 -2.0 12.5817849533906898 50.9043097110461744 16.7367183672851425
3760 3 -2.0 10.7719553828996872 45.2287454305512426 13.9697685445763291
3761 1 2.0 12.0235338117452724 46.4643099851054160 17.6485083350248750
3762 1 2.0 11.3302065245451011 49.6687451564920011 21.8312605516541645
3763 1 2.0 13.6655805581741383 49.6687451564920011 19.8418288287292661
3764 1 2.0 9.6881597781162352 46.4643099851054160 19.6379400579497734
3765 2 4.0 9.3414961345161505 48.0665275707987121 17.5465639496351287
3766 2 4.0 11.6768701681451876 48.0665275707987121 19.7398844433395197
3767 2 4.0 9.3414961345161505 44.8620923994121270 17.5465639496351287
3768 2 4.0 11.6768701681451876 44.8620923994121270 19.7398844433395197
3769 3 -2.0 11.5184839305535434 46.4643099851054160 20.2437313521344926
3770 3 -2.0 11.8352564057368337 49.6687451564920011 19.2360375345445433
3771 3 -2.0 9.4998823721077947 49.6687451564920011 18.0504108584301051
3772 3 -2.0 13.8538579641825805 46.4643099851054160 21.4293580282489380
3773 3 -2.0 10.2464109197616509 48.4331806019378206 20.5497300256895024
3774 3 -2.0 13.1073294165287244 47.6998745396595965 18.9300388609895371
3775 3 -2.0 10.7719553828996872 47.6998745396595965 18.3564095319851113
3776 3 -2.0 12.5817849533906898 48.4331806019378206 21.1233593546939282
3777 3 -2.0 13.1073294165287244 45.2287454305512426 18.9300388609895371
3778 3 -2.0 10.2464109197616509 50.9043097110461744 20.5497300256895024
3779 3 -2.0 12.5817849533906898 50.9043097110461744 21.1233593546939282
3780 3 -2.0 10.7719553828996872 45.2287454305512426 18.3564095319851113
3781 1 2.0 12.0235338117452724 46.4643099851054160 22.0351493224336572
3782 1 2.0 11.3302065245451011 49.6687451564920011 26.2179015390629466
3783 1 2.0 13.6655805581741383 49.6687451564920011 24.2284698161380483
3784 1 2.0 9.6881597781162352 46.4643099851054160 24.0245810453585555
3785 2 4.0 9.3414961345161505 48.0665275707987121 21.9332049370439108
3786 2 4.0 11.6768701681451876 48.0665275707987121 24.1265254307483019
3787 2 4.0 9.3414961345161505 44.8620923994121270 21.9332049370439108
3788 2 4.0 11.6768701681451876 44.8620923994121270 24.1265254307483019
3789 3 -2.0 11.5184839305535434 46.4643099851054160 24.6303723395432748
3790 3 -2.0 11.8352564057368337 49.6687451564920011 23.6226785219533255
3791 3 -2.0 9.4998823721077947 49.6687451564920011 22.4370518458388872
3792 3 -2.0 13.8538579641825805 46.4643099851054160 25.8159990156577202
3793 3 -2.0 10.2464109197616509 48.4331806019378206 24.9363710130982845
3794 3 -2.0 13.1073294165287244 47.6998745396595965 23.3166798483983193
3795 3 -2.0 10.7719553828996872 47.6998745396595965 22.7430505193938934
3796 3 -2.0 12.5817849533906898 48.4331806019378206 25.5100003421027104
3797 3 -2.0 13.1073294165287244 45.2287454305512426 23.3166798483983193
3798 3 -2.0 10.2464109197616509 50.9043097110461744 24.9363710130982845
3799 3 -2.0 12.5817849533906898 50.9043097110461744 25.5100003421027104
3800 3 -2.0 10.7719553828996872 45.2287454305512426 22.7430505193938934
3801 1 2.0 12.0235338117452724 46.4643099851054160 26.4217903098424394
3802 1 2.0 11.3302065245451011 49.6687451564920011 30.6045425264717288
3803 1 2.0 13.6655805581741383 49.6687451564920011 28.6151108035468305
3804 1 2.0 9.6881597781162352 46.4643099851054160 28.4112220327673377
3805 2 4.0 9.3414961345161505 48.0665275707987121 26.3198459244526930
3806 2 4.0 11.6768701681451876 48.0665275707987121 28.5131664181570841
3807 2 4.0 9.3414961345161505 44.8620923994121270 26.3198459244526930
3808 2 4.0 11.6768701681451876 44.8620923994121270 28.5131664181570841
3809 3 -2.0 11.5184839305535434 46.4643099851054160 29.0170133269520569
3810 3 -2.0 11.8352564057368337 49.6687451564920011 28.0093195093621077
3811 3 -2.0 9.4998823721077947 49.6687451564920011 26.8236928332476694
3812 3 -2.0 13.8538579641825805 46.4643099851054160 30.2026400030665023
3813 3 -2.0 10.2464109197616509 48.4331806019378206 29.3230120005070667
3814 3 -2.0 13.1073294165287244 47.6998745396595965 27.7033208358071015
3815 3 -2.0 10.7719553828996872 47.6998745396595965 27.1296915068026756
3816 3 -2.0 12.5817849533906898 48.4331806019378206 29.8966413295114926
3817 3 -2.0 13.1073294165287244 45.2287454305512426 27.7033208358071015
3818 3 -2.0 10.2464109197616509 50.9043097110461744 29.3230120005070667
3819 3 -2.0 12.5817849533906898 50.9043097110461744 29.8966413295114926
3820 3 -2.0 10.7719553828996872 45.2287454305512426 27.1296915068026756
3821 1 2.0 12.0235338117452724 46.4643099851054160 30.8084312972512215
3822 1 2.0 11.3302065245451011 49.6687451564920011 34.9911835138805074
3823 1 2.0 13.6655805581741383 49.6687451564920011 33.0017517909556162
3824 1 2.0 9.6881597781162352 46.4643099851054160 32.7978630201761163
3825 2 4.0 9.3414961345161505 48.0665275707987121 30.7064869118614752
3826 2 4.0 11.6768701681451876 48.0665275707987121 32.8998074055658662
3827 2 4.0 9.3414961345161505 44.8620923994121270 30.7064869118614752
3828 2 4.0 11.6768701681451876 44.8620923994121270 32.8998074055658662
3829 3 -2.0 11.5184839305535434 46.4643099851054160 33.4036543143608355
3830 3 -2.0 11.8352564057368337 49.6687451564920011 32.3959604967708898
3831 3 -2.0 9.4998823721077947 49.6687451564920011 31.2103338206564516
3832 3 -2.0 13.8538579641825805 46.4643099851054160 34.5892809904752880
3833 3 -2.0 10.2464109197616509 48.4331806019378206 33.7096529879158524
3834 3 -2.0 13.1073294165287244 47.6998745396595965 32.0899618232158801
3835 3 -2.0 10.7719553828996872 47.6998745396595965 31.5163324942114578
3836 3 -2.0 12.5817849533906898 48.4331806019378206 34.2832823169202712
3837 3 -2.0 13.1073294165287244 45.2287454305512426 32.0899618232158801
3838 3 -2.0 10.2464109197616509 50.9043097110461744 33.7096529879158524
3839 3 -2.0 12.5817849533906898 50.9043097110461744 34.2832823169202712
3840 3 -2.0 10.7719553828996872 45.2287454305512426 31.5163324942114578
3841 1 2.0 16.6942818790033485 1.6022175856932903 0.1019443853897463
3842 1 2.0 16.0009545918031755 4.8066527570798705 4.2846966020190349
3843 1 2.0 18.3363286254322126 4.8066527570798705 2.2952648790941383
3844 1 2.0 14.3589078453743113 1.6022175856932903 2.0913761083146447
3845 2 4.0 14.0122442017742266 3.2044351713865806 0.0000000000000000
3846 2 4.0 16.3476182354032638 3.2044351713865806 2.1933204937043911
3847 2 4.0 14.0122442017742266 0.0000000000000000 0.0000000000000000
3848 2 4.0 16.3476182354032638 0.0000000000000000 2.1933204937043911
3849 3 -2.0 16.1892319978116177 1.6022175856932903 2.6971674024993644
3850 3 -2.0 16.5060044729949098 4.8066527570798705 1.6894735849094176
3851 3 -2.0 14.1706304393658709 4.8066527570798705 0.5038469087949736
3852 3 -2.0 18.5246060314406549 1.6022175856932903 3.8827940786138089
3853 3 -2.0 14.9171589870197270 3.5710882025256927 3.0031660760543750
3854 3 -2.0 17.7780774837867988 2.8377821402474677 1.3834749113544080
3855 3 -2.0 15.4427034501577616 2.8377821402474677 0.8098455823499836
3856 3 -2.0 17.2525330206487659 3.5710882025256927 3.5767954050587982
3857 3 -2.0 17.7780774837867988 0.3666530311391118 1.3834749113544080
3858 3 -2.0 14.9171589870197270 6.0422173116340492 3.0031660760543750
3859 3 -2.0 17.2525330206487659 6.0422173116340492 3.5767954050587982
3860 3 -2.0 15.4427034501577616 0.3666530311391118 0.8098455823499836
3861 1 2.0 16.6942818790033485 1.6022175856932903 4.4885853727985285
3862 1 2.0 16.0009545918031755 4.8066527570798705 8.6713375894278162
3863 1 2.0 18.3363286254322126 4.8066527570798705 6.6819058665029205
3864 1 2.0 14.3589078453743113 1.6022175856932903 6.4780170957234269
3865 2 4.0 14.0122442017742266 3.2044351713865806 4.3866409874087822
3866 2 4.0 16.3476182354032638 3.2044351713865806 6.5799614811131732
3867 2 4.0 14.0122442017742266 0.0000000000000000 4.3866409874087822
3868 2 4.0 16.3476182354032638 0.0000000000000000 6.5799614811131732
3869 3 -2.0 16.1892319978116177 1.6022175856932903 7.0838083899081470
3870 3 -2.0 16.5060044729949098 4.8066527570798705 6.0761145723181995
3871 3 -2.0 14.1706304393658709 4.8066527570798705 4.8904878962037559
3872 3 -2.0 18.5246060314406549 1.6022175856932903 8.2694350660225915
3873 3 -2.0 14.9171589870197270 3.5710882025256927 7.3898070634631576
3874 3 -2.0 17.7780774837867988 2.8377821402474677 5.7701158987631906
3875 3 -2.0 15.4427034501577616 2.8377821402474677 5.1964865697587657
3876 3 -2.0 17.2525330206487659 3.5710882025256927 7.9634363924675799
3877 3 -2.0 17.7780774837867988 0.3666530311391118 5.7701158987631906
3878 3 -2.0 14.9171589870197270 6.0422173116340492 7.3898070634631576
3879 3 -2.0 17.2525330206487659 6.0422173116340492 7.9634363924675799
3880 3 -2.0 15.4427034501577616 0.3666530311391118 5.1964865697587657
3881 1 2.0 16.6942818790033485 1.6022175856932903 8.8752263602073107
3882 1 2.0 16.0009545918031755 4.8066527570798705 13.0579785768365984
3883 1 2.0 18.3363286254322126 4.8066527570798705 11.0685468539117036
3884 1 2.0 14.3589078453743113 1.6022175856932903 10.8646580831322090
3885 2 4.0 14.0122442017742266 3.2044351713865806 8.7732819748175643
3886 2 4.0 16.3476182354032638 3.2044351713865806 10.9666024685219554
3887 2 4.0 14.0122442017742266 0.0000000000000000 8.7732819748175643
3888 2 4.0 16.3476182354032638 0.0000000000000000 10.9666024685219554
3889 3 -2.0 16.1892319978116177 1.6022175856932903 11.4704493773169283
3890 3 -2.0 16.5060044729949098 4.8066527570798705 10.4627555597269826
3891 3 -2.0 14.1706304393658709 4.8066527570798705 9.2771288836125372
3892 3 -2.0 18.5246060314406549 1.6022175856932903 12.6560760534313737
3893 3 -2.0 14.9171589870197270 3.5710882025256927 11.7764480508719398
3894 3 -2.0 17.7780774837867988 2.8377821402474677 10.1567568861719728
3895 3 -2.0 15.4427034501577616 2.8377821402474677 9.5831275571675469
3896 3 -2.0 17.2525330206487659 3.5710882025256927 12.3500773798763621
3897 3 -2.0 17.7780774837867988 0.3666530311391118 10.1567568861719728
3898 3 -2.0 14.9171589870197270 6.0422173116340492 11.7764480508719398
3899 3 -2.0 17.2525330206487659 6.0422173116340492 12.3500773798763621
3900 3 -2.0 15.4427034501577616 0.3666530311391118 9.5831275571675469
3901 1 2.0 16.6942818790033485 1.6022175856932903 13.2618673476160929
3902 1 2.0 16.0009545918031755 4.8066527570798705 17.4446195642453823
3903 1 2.0 18.3363286254322126 4.8066527570798705 15.4551878413204857
3904 1 2.0 14.3589078453743113 1.6022175856932903 15.2512990705409912
3905 2 4.0 14.0122442017742266 3.2044351713865806 13.1599229622263465
3906 2 4.0 16.3476182354032638 3.2044351713865806 15.3532434559307376
3907 2 4.0 14.0122442017742266 0.0000000000000000 13.1599229622263465
3908 2 4.0 16.3476182354032638 0.0000000000000000 15.3532434559307376
3909 3 -2.0 16.1892319978116177 1.6022175856932903 15.8570903647257104
3910 3 -2.0 16.5060044729949098 4.8066527570798705 14.8493965471357647
3911 3 -2.0 14.1706304393658709 4.8066527570798705 13.6637698710213193
3912 3 -2.0 18.5246060314406549 1.6022175856932903 17.0427170408401558
3913 3 -2.0 14.9171589870197270 3.5710882025256927 16.1630890382807237
3914 3 -2.0 17.7780774837867988 2.8377821402474677 14.5433978735807550
3915 3 -2.0 15.4427034501577616 2.8377821402474677 13.9697685445763291
3916 3 -2.0 17.2525330206487659 3.5710882025256927 16.7367183672851425
3917 3 -2.0 17.7780774837867988 0.3666530311391118 14.5433978735807550
3918 3 -2.0 14.9171589870197270 6.0422173116340492 16.1630890382807237
3919 3 -2.0 17.2525330206487659 6.0422173116340492 16.7367183672851425
3920 3 -2.0 15.4427034501577616 0.3666530311391118 13.9697685445763291
3921 1 2.0 16.6942818790033485 1.6022175856932903 17.6485083350248750
3922 1 2.0 16.0009545918031755 4.8066527570798705 21.8312605516541645
3923 1 2.0 18.3363286254322126 4.8066527570798705 19.8418288287292661
3924 1 2.0 14.3589078453743113 1.6022175856932903 19.6379400579497734
3925 2 4.0 14.0122442017742266 3.2044351713865806 17.5465639496351287
3926 2 4.0 16.3476182354032638 3.2044351713865806 19.7398844433395197
3927 2 4.0 14.0122442017742266 0.0000000000000000 17.5465639496351287
3928 2 4.0 16.3476182354032638 0.0000000000000000 19.7398844433395197
3929 3 -2.0 16.1892319978116177 1.6022175856932903 20.2437313521344926
3930 3 -2.0 16.5060044729949098 4.8066527570798705 19.2360375345445433
3931 3 -2.0 14.1706304393658709 4.8066527570798705 18.0504108584301051
3932 3 -2.0 18.5246060314406549 1.6022175856932903 21.4293580282489380
3933 3 -2.0 14.9171589870197270 3.5710882025256927 20.5497300256895024
3934 3 -2.0 17.7780774837867988 2.8377821402474677 18.9300388609895371
3935 3 -2.0 15.4427034501577616 2.8377821402474677 18.3564095319851113
3936 3 -2.0 17.2525330206487659 3.5710882025256927 21.1233593546939282
3937 3 -2.0 17.7780774837867988 0.3666530311391118 18.9300388609895371
3938 3 -2.0 14.9171589870197270 6.0422173116340492 20.5497300256895024
3939 3 -2.0 17.2525330206487659 6.0422173116340492 21.1233593546939282
3940 3 -2.0 15.4427034501577616 0.3666530311391118 18.3564095319851113
3941 1 2.0 16.6942818790033485 1.6022175856932903 22.0351493224336572
3942 1 2.0 16.0009545918031755 4.8066527570798705 26.2179015390629466
3943 1 2.0 18.3363286254322126 4.8066527570798705 24.2284698161380483
3944 1 2.0 14.3589078453743113 1.6022175856932903 24.0245810453585555
3945 2 4.0 14.0122442017742266 3.2044351713865806 21.9332049370439108
3946 2 4.0 16.3476182354032638 3.2044351713865806 24.1265254307483019
3947 2 4.0 14.0122442017742266 0.0000000000000000 21.9332049370439108
3948 2 4.0 16.3476182354032638 0.0000000000000000 24.1265254307483019
3949 3 -2.0 16.1892319978116177 1.6022175856932903 24.6303723395432748
3950 3 -2.0 16.5060044729949098 4.8066527570798705 23.6226785219533255
3951 3 -2.0 14.1706304393658709 4.8066527570798705 22.4370518458388872
3952 3 -2.0 18.5246060314406549 1.6022175856932903 25.8159990156577202
3953 3 -2.0 14.9171589870197270 3.5710882025256927 24.9363710130982845
3954 3 -2.0 17.7780774837867988 2.8377821402474677 23.3166798483983193
3955 3 -2.0 15.4427034501577616 2.8377821402474677 22.7430505193938934
3956 3 -2.0 17.2525330206487659 3.5710882025256927 25.5100003421027104
3957 3 -2.0 17.7780774837867988 0.3666530311391118 23.3166798483983193
3958 3 -2.0 14.9171589870197270 6.0422173116340492 24.9363710130982845
3959 3 -2.0 17.2525330206487659 6.0422173116340492 25.5100003421027104
3960 3 -2.0 15.4427034501577616 0.3666530311391118 22.7430505193938934
3961 1 2.0 16.6942818790033485 1.6022175856932903 26.4217903098424394
3962 1 2.0 16.0009545918031755 4.8066527570798705 30.6045425264717288
3963 1 2.0 18.3363286254322126 4.8066527570798705 28.6151108035468305
3964 1 2.0 14.3589078453743113 1.6022175856932903 28.4112220327673377
3965 2 4.0 14.0122442017742266 3.2044351713865806 26.3198459244526930
3966 2 4.0 16.3476182354032638 3.2044351713865806 28.5131664181570841
3967 2 4.0 14.0122442017742266 0.0000000000000000 26.3198459244526930
3968 2 4.0 16.3476182354032638 0.0000000000000000 28.5131664181570841
3969 3 -2.0 16.1892319978116177 1.6022175856932903 29.0170133269520569
3970 3 -2.0 16.5060044729949098 4.8066527570798705 28.0093195093621077
3971 3 -2.0 14.1706304393658709 4.8066527570798705 26.8236928332476694
3972 3 -2.0 18.5246060314406549 1.6022175856932903 30.2026400030665023
3973 3 -2.0 14.9171589870197270 3.5710882025256927 29.3230120005070667
3974 3 -2.0 17.7780774837867988 2.8377821402474677 27.7033208358071015
3975 3 -2.0 15.4427034501577616 2.8377821402474677 27.1296915068026756
3976 3 -2.0 17.2525330206487659 3.5710882025256927 29.8966413295114926
3977 3 -2.0 17.7780774837867988 0.3666530311391118 27.7033208358071015
3978 3 -2.0 14.9171589870197270 6.0422173116340492 29.3230120005070667
3979 3 -2.0 17.2525330206487659 6.0422173116340492 29.8966413295114926
3980 3 -2.0 15.4427034501577616 0.3666530311391118 27.1296915068026756
3981 1 2.0 16.6942818790033485 1.6022175856932903 30.8084312972512215
3982 1 2.0 16.0009545918031755 4.8066527570798705 34.9911835138805074
3983 1 2.0 18.3363286254322126 4.8066527570798705 33.0017517909556162
3984 1 2.0 14.3589078453743113 1.6022175856932903 32.7978630201761163
3985 2 4.0 14.0122442017742266 3.2044351713865806 30.7064869118614752
3986 2 4.0 16.3476182354032638 3.2044351713865806 32.8998074055658662
3987 2 4.0 14.0122442017742266 0.0000000000000000 30.7064869118614752
3988 2 4.0 16.3476182354032638 0.0000000000000000 32.8998074055658662
3989 3 -2.0 16.1892319978116177 1.6022175856932903 33.4036543143608355
3990 3 -2.0 16.5060044729949098 4.8066527570798705 32.3959604967708898
3991 3 -2.0 14.1706304393658709 4.8066527570798705 31.2103338206564516
3992 3 -2.0 18.5246060314406549 1.6022175856932903 34.5892809904752880
3993 3 -2.0 14.9171589870197270 3.5710882025256927 33.7096529879158524
3994 3 -2.0 17.7780774837867988 2.8377821402474677 32.0899618232158801
3995 3 -2.0 15.4427034501577616 2.8377821402474677 31.5163324942114578
3996 3 -2.0 17.2525330206487659 3.5710882025256927 34.2832823169202712
3997 3 -2.0 17.7780774837867988 0.3666530311391118 32.0899618232158801
3998 3 -2.0 14.9171589870197270 6.0422173116340492 33.7096529879158524
3999 3 -2.0 17.2525330206487659 6.0422173116340492 34.2832823169202712
4000 3 -2.0 15.4427034501577616 0.3666530311391118 31.5163324942114578
4001 1 2.0 16.6942818790033485 8.0110879284664520 0.1019443853897463
4002 1 2.0 16.0009545918031755 11.2155230998530318 4.2846966020190349
4003 1 2.0 18.3363286254322126 11.2155230998530318 2.2952648790941383
4004 1 2.0 14.3589078453743113 8.0110879284664520 2.0913761083146447
4005 2 4.0 14.0122442017742266 9.6133055141597410 0.0000000000000000
4006 2 4.0 16.3476182354032638 9.6133055141597410 2.1933204937043911
4007 2 4.0 14.0122442017742266 6.4088703427731613 0.0000000000000000
4008 2 4.0 16.3476182354032638 6.4088703427731613 2.1933204937043911
4009 3 -2.0 16.1892319978116177 8.0110879284664520 2.6971674024993644
4010 3 -2.0 16.5060044729949098 11.2155230998530318 1.6894735849094176
4011 3 -2.0 14.1706304393658709 11.2155230998530318 0.5038469087949736
4012 3 -2.0 18.5246060314406549 8.0110879284664520 3.8827940786138089
4013 3 -2.0 14.9171589870197270 9.9799585452988531 3.0031660760543750
4014 3 -2.0 17.7780774837867988 9.2466524830206289 1.3834749113544080
4015 3 -2.0 15.4427034501577616 9.2466524830206289 0.8098455823499836
4016 3 -2.0 17.2525330206487659 9.9799585452988531 3.5767954050587982
4017 3 -2.0 17.7780774837867988 6.7755233739122724 1.3834749113544080
4018 3 -2.0 14.9171589870197270 12.4510876544072104 3.0031660760543750
4019 3 -2.0 17.2525330206487659 12.4510876544072104 3.5767954050587982
4020 3 -2.0 15.4427034501577616 6.7755233739122724 0.8098455823499836
4021 1 2.0 16.6942818790033485 8.0110879284664520 4.4885853727985285
4022 1 2.0 16.0009545918031755 11.2155230998530318 8.6713375894278162
4023 1 2.0 18.3363286254322126 11.2155230998530318 6.6819058665029205
4024 1 2.0 14.3589078453743113 8.0110879284664520 6.4780170957234269
4025 2 4.0 14.0122442017742266 9.6133055141597410 4.3866409874087822
4026 2 4.0 16.3476182354032638 9.6133055141597410 6.5799614811131732
4027 2 4.0 14.0122442017742266 6.4088703427731613 4.3866409874087822
4028 2 4.0 16.3476182354032638 6.4088703427731613 6.5799614811131732
4029 3 -2.0 16.1892319978116177 8.0110879284664520 7.0838083899081470
4030 3 -2.0 16.5060044729949098 11.2155230998530318 6.0761145723181995
4031 3 -2.0 14.1706304393658709 11.2155230998530318 4.8904878962037559
4032 3 -2.0 18.5246060314406549 8.0110879284664520 8.2694350660225915
4033 3 -2.0 14.9171589870197270 9.9799585452988531 7.3898070634631576
4034 3 -2.0 17.7780774837867988 9.2466524830206289 5.7701158987631906
4035 3 -2.0 15.4427034501577616 9.2466524830206289 5.1964865697587657
4036 3 -2.0 17.2525330206487659 9.9799585452988531 7.9634363924675799
4037 3 -2.0 17.7780774837867988 6.7755233739122724 5.7701158987631906
4038 3 -2.0 14.9171589870197270 12.4510876544072104 7.3898070634631576
4039 3 -2.0 17.2525330206487659 12.4510876544072104 7.9634363924675799
4040 3 -2.0 15.4427034501577616 6.7755233739122724 5.1964865697587657
4041 1 2.0 16.6942818790033485 8.0110879284664520 8.8752263602073107
4042 1 2.0 16.0009545918031755 11.2155230998530318 13.0579785768365984
4043 1 2.0 18.3363286254322126 11.2155230998530318 11.0685468539117036
4044 1 2.0 14.3589078453743113 8.0110879284664520 10.8646580831322090
4045 2 4.0 14.0122442017742266 9.6133055141597410 8.7732819748175643
4046 2 4.0 16.3476182354032638 9.6133055141597410 10.9666024685219554
4047 2 4.0 14.0122442017742266 6.4088703427731613 8.7732819748175643
4048 2 4.0 16.3476182354032638 6.4088703427731613 10.9666024685219554
4049 3 -2.0 16.1892319978116177 8.0110879284664520 11.4704493773169283
4050 3 -2.0 16.5060044729949098 11.2155230998530318 10.4627555597269826
4051 3 -2.0 14.1706304393658709 11.2155230998530318 9.2771288836125372
4052 3 -2.0 18.5246060314406549 8.0110879284664520 12.6560760534313737
4053 3 -2.0 14.9171589870197270 9.9799585452988531 11.7764480508719398
4054 3 -2.0 17.7780774837867988 9.2466524830206289 10.1567568861719728
4055 3 -2.0 15.4427034501577616 9.2466524830206289 9.5831275571675469
4056 3 -2.0 17.2525330206487659 9.9799585452988531 12.3500773798763621
4057 3 -2.0 17.7780774837867988 6.7755233739122724 10.1567568861719728
4058 3 -2.0 14.9171589870197270 12.4510876544072104 11.7764480508719398
4059 3 -2.0 17.2525330206487659 12.4510876544072104 12.3500773798763621
4060 3 -2.0 15.4427034501577616 6.7755233739122724 9.5831275571675469
4061 1 2.0 16.6942818790033485 8.0110879284664520 13.2618673476160929
4062 1 2.0 16.0009545918031755 11.2155230998530318 17.4446195642453823
4063 1 2.0 18.3363286254322126 11.2155230998530318 15.4551878413204857
4064 1 2.0 14.3589078453743113 8.0110879284664520 15.2512990705409912
4065 2 4.0 14.0122442017742266 9.6133055141597410 13.1599229622263465
4066 2 4.0 16.3476182354032638 9.6133055141597410 15.3532434559307376
4067 2 4.0 14.0122442017742266 6.4088703427731613 13.1599229622263465
4068 2 4.0 16.3476182354032638 6.4088703427731613 15.3532434559307376
4069 3 -2.0 16.1892319978116177 8.0110879284664520 15.8570903647257104
4070 3 -2.0 16.5060044729949098 11.2155230998530318 14.8493965471357647
4071 3 -2.0 14.1706304393658709 11.2155230998530318 13.6637698710213193
4072 3 -2.0 18.5246060314406549 8.0110879284664520 17.0427170408401558
4073 3 -2.0 14.9171589870197270 9.9799585452988531 16.1630890382807237
4074 3 -2.0 17.7780774837867988 9.2466524830206289 14.5433978735807550
4075 3 -2.0 15.4427034501577616 9.2466524830206289 13.9697685445763291
4076 3 -2.0 17.2525330206487659 9.9799585452988531 16.7367183672851425
4077 3 -2.0 17.7780774837867988 6.7755233739122724 14.5433978735807550
4078 3 -2.0 14.9171589870197270 12.4510876544072104 16.1630890382807237
4079 3 -2.0 17.2525330206487659 12.4510876544072104 16.7367183672851425
4080 3 -2.0 15.4427034501577616 6.7755233739122724 13.9697685445763291
4081 1 2.0 16.6942818790033485 8.0110879284664520 17.6485083350248750
4082 1 2.0 16.0009545918031755 11.2155230998530318 21.8312605516541645
4083 1 2.0 18.3363286254322126 11.2155230998530318 19.8418288287292661
4084 1 2.0 14.3589078453743113 8.0110879284664520 19.6379400579497734
4085 2 4.0 14.0122442017742266 9.6133055141597410 17.5465639496351287
4086 2 4.0 16.3476182354032638 9.6133055141597410 19.7398844433395197
4087 2 4.0 14.0122442017742266 6.4088703427731613 17.5465639496351287
4088 2 4.0 16.3476182354032638 6.4088703427731613 19.7398844433395197
4089 3 -2.0 16.1892319978116177 8.0110879284664520 20.2437313521344926
4090 3 -2.0 16.5060044729949098 11.2155230998530318 19.2360375345445433
4091 3 -2.0 14.1706304393658709 11.2155230998530318 18.0504108584301051
4092 3 -2.0 18.5246060314406549 8.0110879284664520 21.4293580282489380
4093 3 -2.0 14.9171589870197270 9.9799585452988531 20.5497300256895024
4094 3 -2.0 17.7780774837867988 9.2466524830206289 18.9300388609895371
4095 3 -2.0 15.4427034501577616 9.2466524830206289 18.3564095319851113
4096 3 -2.0 17.2525330206487659 9.9799585452988531 21.1233593546939282
4097 3 -2.0 17.7780774837867988 6.7755233739122724 18.9300388609895371
4098 3 -2.0 14.9171589870197270 12.4510876544072104 20.5497300256895024
4099 3 -2.0 17.2525330206487659 12.4510876544072104 21.1233593546939282
4100 3 -2.0 15.4427034501577616 6.7755233739122724 18.3564095319851113
4101 1 2.0 16.6942818790033485 8.0110879284664520 22.0351493224336572
4102 1 2.0 16.0009545918031755 11.2155230998530318 26.2179015390629466
4103 1 2.0 18.3363286254322126 11.2155230998530318 24.2284698161380483
4104 1 2.0 14.3589078453743113 8.0110879284664520 24.0245810453585555
4105 2 4.0 14.0122442017742266 9.6133055141597410 21.9332049370439108
4106 2 4.0 16.3476182354032638 9.6133055141597410 24.1265254307483019
4107 2 4.0 14.0122442017742266 6.4088703427731613 21.9332049370439108
4108 2 4.0 16.3476182354032638 6.4088703427731613 24.1265254307483019
4109 3 -2.0 16.1892319978116177 8.0110879284664520 24.6303723395432748
4110 3 -2.0 16.5060044729949098 11.2155230998530318 23.6226785219533255
4111 3 -2.0 14.1706304393658709 11.2155230998530318 22.4370518458388872
4112 3 -2.0 18.5246060314406549 8.0110879284664520 25.8159990156577202
4113 3 -2.0 14.9171589870197270 9.9799585452988531 24.9363710130982845
4114 3 -2.0 17.7780774837867988 9.2466524830206289 23.3166798483983193
4115 3 -2.0 15.4427034501577616 9.2466524830206289 22.7430505193938934
4116 3 -2.0 17.2525330206487659 9.9799585452988531 25.5100003421027104
4117 3 -2.0 17.7780774837867988 6.7755233739122724 23.3166798483983193
4118 3 -2.0 14.9171589870197270 12.4510876544072104 24.9363710130982845
4119 3 -2.0 17.2525330206487659 12.4510876544072104 25.5100003421027104
4120 3 -2.0 15.4427034501577616 6.7755233739122724 22.7430505193938934
4121 1 2.0 16.6942818790033485 8.0110879284664520 26.4217903098424394
4122 1 2.0 16.0009545918031755 11.2155230998530318 30.6045425264717288
4123 1 2.0 18.3363286254322126 11.2155230998530318 28.6151108035468305
4124 1 2.0 14.3589078453743113 8.0110879284664520 28.4112220327673377
4125 2 4.0 14.0122442017742266 9.6133055141597410 26.3198459244526930
4126 2 4.0 16.3476182354032638 9.6133055141597410 28.5131664181570841
4127 2 4.0 14.0122442017742266 6.4088703427731613 26.3198459244526930
4128 2 4.0 16.3476182354032638 6.4088703427731613 28.5131664181570841
4129 3 -2.0 16.1892319978116177 8.0110879284664520 29.0170133269520569
4130 3 -2.0 16.5060044729949098 11.2155230998530318 28.0093195093621077
4131 3 -2.0 14.1706304393658709 11.2155230998530318 26.8236928332476694
4132 3 -2.0 18.5246060314406549 8.0110879284664520 30.2026400030665023
4133 3 -2.0 14.9171589870197270 9.9799585452988531 29.3230120005070667
4134 3 -2.0 17.7780774837867988 9.2466524830206289 27.7033208358071015
4135 3 -2.0 15.4427034501577616 9.2466524830206289 27.1296915068026756
4136 3 -2.0 17.2525330206487659 9.9799585452988531 29.8966413295114926
4137 3 -2.0 17.7780774837867988 6.7755233739122724 27.7033208358071015
4138 3 -2.0 14.9171589870197270 12.4510876544072104 29.3230120005070667
4139 3 -2.0 17.2525330206487659 12.4510876544072104 29.8966413295114926
4140 3 -2.0 15.4427034501577616 6.7755233739122724 27.1296915068026756
4141 1 2.0 16.6942818790033485 8.0110879284664520 30.8084312972512215
4142 1 2.0 16.0009545918031755 11.2155230998530318 34.9911835138805074
4143 1 2.0 18.3363286254322126 11.2155230998530318 33.0017517909556162
4144 1 2.0 14.3589078453743113 8.0110879284664520 32.7978630201761163
4145 2 4.0 14.0122442017742266 9.6133055141597410 30.7064869118614752
4146 2 4.0 16.3476182354032638 9.6133055141597410 32.8998074055658662
4147 2 4.0 14.0122442017742266 6.4088703427731613 30.7064869118614752
4148 2 4.0 16.3476182354032638 6.4088703427731613 32.8998074055658662
4149 3 -2.0 16.1892319978116177 8.0110879284664520 33.4036543143608355
4150 3 -2.0 16.5060044729949098 11.2155230998530318 32.3959604967708898
4151 3 -2.0 14.1706304393658709 11.2155230998530318 31.2103338206564516
4152 3 -2.0 18.5246060314406549 8.0110879284664520 34.5892809904752880
4153 3 -2.0 14.9171589870197270 9.9799585452988531 33.7096529879158524
4154 3 -2.0 17.7780774837867988 9.2466524830206289 32.0899618232158801
4155 3 -2.0 15.4427034501577616 9.2466524830206289 31.5163324942114578
4156 3 -2.0 17.2525330206487659 9.9799585452988531 34.2832823169202712
4157 3 -2.0 17.7780774837867988 6.7755233739122724 32.0899618232158801
4158 3 -2.0 14.9171589870197270 12.4510876544072104 33.7096529879158524
4159 3 -2.0 17.2525330206487659 12.4510876544072104 34.2832823169202712
4160 3 -2.0 15.4427034501577616 6.7755233739122724 31.5163324942114578
4161 1 2.0 16.6942818790033485 14.4199582712396133 0.1019443853897463
4162 1 2.0 16.0009545918031755 17.6243934426261930 4.2846966020190349
4163 1 2.0 18.3363286254322126 17.6243934426261930 2.2952648790941383
4164 1 2.0 14.3589078453743113 14.4199582712396133 2.0913761083146447
4165 2 4.0 14.0122442017742266 16.0221758569329040 0.0000000000000000
4166 2 4.0 16.3476182354032638 16.0221758569329040 2.1933204937043911
4167 2 4.0 14.0122442017742266 12.8177406855463225 0.0000000000000000
4168 2 4.0 16.3476182354032638 12.8177406855463225 2.1933204937043911
4169 3 -2.0 16.1892319978116177 14.4199582712396133 2.6971674024993644
4170 3 -2.0 16.5060044729949098 17.6243934426261930 1.6894735849094176
4171 3 -2.0 14.1706304393658709 17.6243934426261930 0.5038469087949736
4172 3 -2.0 18.5246060314406549 14.4199582712396133 3.8827940786138089
4173 3 -2.0 14.9171589870197270 16.3888288880720161 3.0031660760543750
4174 3 -2.0 17.7780774837867988 15.6555228257937884 1.3834749113544080
4175 3 -2.0 15.4427034501577616 15.6555228257937884 0.8098455823499836
4176 3 -2.0 17.2525330206487659 16.3888288880720161 3.5767954050587982
4177 3 -2.0 17.7780774837867988 13.1843937166854346 1.3834749113544080
4178 3 -2.0 14.9171589870197270 18.8599579971803735 3.0031660760543750
4179 3 -2.0 17.2525330206487659 18.8599579971803735 3.5767954050587982
4180 3 -2.0 15.4427034501577616 13.1843937166854346 0.8098455823499836
4181 1 2.0 16.6942818790033485 14.4199582712396133 4.4885853727985285
4182 1 2.0 16.0009545918031755 17.6243934426261930 8.6713375894278162
4183 1 2.0 18.3363286254322126 17.6243934426261930 6.6819058665029205
4184 1 2.0 14.3589078453743113 14.4199582712396133 6.4780170957234269
4185 2 4.0 14.0122442017742266 16.0221758569329040 4.3866409874087822
4186 2 4.0 16.3476182354032638 16.0221758569329040 6.5799614811131732
4187 2 4.0 14.0122442017742266 12.8177406855463225 4.3866409874087822
4188 2 4.0 16.3476182354032638 12.8177406855463225 6.5799614811131732
4189 3 -2.0 16.1892319978116177 14.4199582712396133 7.0838083899081470
4190 3 -2.0 16.5060044729949098 17.6243934426261930 6.0761145723181995
4191 3 -2.0 14.1706304393658709 17.6243934426261930 4.8904878962037559
4192 3 -2.0 18.5246060314406549 14.4199582712396133 8.2694350660225915
4193 3 -2.0 14.9171589870197270 16.3888288880720161 7.3898070634631576
4194 3 -2.0 17.7780774837867988 15.6555228257937884 5.7701158987631906
4195 3 -2.0 15.4427034501577616 15.6555228257937884 5.1964865697587657
4196 3 -2.0 17.2525330206487659 16.3888288880720161 7.9634363924675799
4197 3 -2.0 17.7780774837867988 13.1843937166854346 5.7701158987631906
4198 3 -2.0 14.9171589870197270 18.8599579971803735 7.3898070634631576
4199 3 -2.0 17.2525330206487659 18.8599579971803735 7.9634363924675799
4200 3 -2.0 15.4427034501577616 13.1843937166854346 5.1964865697587657
4201 1 2.0 16.6942818790033485 14.4199582712396133 8.8752263602073107
4202 1 2.0 16.0009545918031755 17.6243934426261930 13.0579785768365984
4203 1 2.0 18.3363286254322126 17.6243934426261930 11.0685468539117036
4204 1 2.0 14.3589078453743113 14.4199582712396133 10.8646580831322090
4205 2 4.0 14.0122442017742266 16.0221758569329040 8.7732819748175643
4206 2 4.0 16.3476182354032638 16.0221758569329040 10.9666024685219554
4207 2 4.0 14.0122442017742266 12.8177406855463225 8.7732819748175643
4208 2 4.0 16.3476182354032638 12.8177406855463225 10.9666024685219554
4209 3 -2.0 16.1892319978116177 14.4199582712396133 11.4704493773169283
4210 3 -2.0 16.5060044729949098 17.6243934426261930 10.4627555597269826
4211 3 -2.0 14.1706304393658709 17.6243934426261930 9.2771288836125372
4212 3 -2.0 18.5246060314406549 14.4199582712396133 12.6560760534313737
4213 3 -2.0 14.9171589870197270 16.3888288880720161 11.7764480508719398
4214 3 -2.0 17.7780774837867988 15.6555228257937884 10.1567568861719728
4215 3 -2.0 15.4427034501577616 15.6555228257937884 9.5831275571675469
4216 3 -2.0 17.2525330206487659 16.3888288880720161 12.3500773798763621
4217 3 -2.0 17.7780774837867988 13.1843937166854346 10.1567568861719728
4218 3 -2.0 14.9171589870197270 18.8599579971803735 11.7764480508719398
4219 3 -2.0 17.2525330206487659 18.8599579971803735 12.3500773798763621
4220 3 -2.0 15.4427034501577616 13.1843937166854346 9.5831275571675469
4221 1 2.0 16.6942818790033485 14.4199582712396133 13.2618673476160929
4222 1 2.0 16.0009545918031755 17.6243934426261930 17.4446195642453823
4223 1 2.0 18.3363286254322126 17.6243934426261930 15.4551878413204857
4224 1 2.0 14.3589078453743113 14.4199582712396133 15.2512990705409912
4225 2 4.0 14.0122442017742266 16.0221758569329040 13.1599229622263465
4226 2 4.0 16.3476182354032638 16.0221758569329040 15.3532434559307376
4227 2 4.0 14.0122442017742266 12.8177406855463225 13.1599229622263465
4228 2 4.0 16.3476182354032638 12.8177406855463225 15.3532434559307376
4229 3 -2.0 16.1892319978116177 14.4199582712396133 15.8570903647257104
4230 3 -2.0 16.5060044729949098 17.6243934426261930 14.8493965471357647
4231 3 -2.0 14.1706304393658709 17.6243934426261930 13.6637698710213193
4232 3 -2.0 18.5246060314406549 14.4199582712396133 17.0427170408401558
4233 3 -2.0 14.9171589870197270 16.3888288880720161 16.1630890382807237
4234 3 -2.0 17.7780774837867988 15.6555228257937884 14.5433978735807550
4235 3 -2.0 15.4427034501577616 15.6555228257937884 13.9697685445763291
4236 3 -2.0 17.2525330206487659 16.3888288880720161 16.7367183672851425
4237 3 -2.0 17.7780774837867988 13.1843937166854346 14.5433978735807550
4238 3 -2.0 14.9171589870197270 18.8599579971803735 16.1630890382807237
4239 3 -2.0 17.2525330206487659 18.8599579971803735 16.7367183672851425
4240 3 -2.0 15.4427034501577616 13.1843937166854346 13.9697685445763291
4241 1 2.0 16.6942818790033485 14.4199582712396133 17.6485083350248750
4242 1 2.0 16.0009545918031755 17.6243934426261930 21.8312605516541645
4243 1 2.0 18.3363286254322126 17.6243934426261930 19.8418288287292661
4244 1 2.0 14.3589078453743113 14.4199582712396133 19.6379400579497734
4245 2 4.0 14.0122442017742266 16.0221758569329040 17.5465639496351287
4246 2 4.0 16.3476182354032638 16.0221758569329040 19.7398844433395197
4247 2 4.0 14.0122442017742266 12.8177406855463225 17.5465639496351287
4248 2 4.0 16.3476182354032638 12.8177406855463225 19.7398844433395197
4249 3 -2.0 16.1892319978116177 14.4199582712396133 20.2437313521344926
4250 3 -2.0 16.5060044729949098 17.6243934426261930 19.2360375345445433
4251 3 -2.0 14.1706304393658709 17.6243934426261930 18.0504108584301051
4252 3 -2.0 18.5246060314406549 14.4199582712396133 21.4293580282489380
4253 3 -2.0 14.9171589870197270 16.3888288880720161 20.5497300256895024
4254 3 -2.0 17.7780774837867988 15.6555228257937884 18.9300388609895371
4255 3 -2.0 15.4427034501577616 15.6555228257937884 18.3564095319851113
4256 3 -2.0 17.2525330206487659 16.3888288880720161 21.1233593546939282
4257 3 -2.0 17.7780774837867988 13.1843937166854346 18.9300388609895371
4258 3 -2.0 14.9171589870197270 18.8599579971803735 20.5497300256895024
4259 3 -2.0 17.2525330206487659 18.8599579971803735 21.1233593546939282
4260 3 -2.0 15.4427034501577616 13.1843937166854346 18.3564095319851113
4261 1 2.0 16.6942818790033485 14.4199582712396133 22.0351493224336572
4262 1 2.0 16.0009545918031755 17.6243934426261930 26.2179015390629466
4263 1 2.0 18.3363286254322126 17.6243934426261930 24.2284698161380483
4264 1 2.0 14.3589078453743113 14.4199582712396133 24.0245810453585555
4265 2 4.0 14.0122442017742266 16.0221758569329040 21.9332049370439108
4266 2 4.0 16.3476182354032638 16.0221758569329040 24.1265254307483019
4267 2 4.0 14.0122442017742266 12.8177406855463225 21.9332049370439108
4268 2 4.0 16.3476182354032638 12.8177406855463225 24.1265254307483019
4269 3 -2.0 16.1892319978116177 14.4199582712396133 24.6303723395432748
4270 3 -2.0 16.5060044729949098 17.6243934426261930 23.6226785219533255
4271 3 -2.0 14.1706304393658709 17.6243934426261930 22.4370518458388872
4272 3 -2.0 18.5246060314406549 14.4199582712396133 25.8159990156577202
4273 3 -2.0 14.9171589870197270 16.3888288880720161 24.9363710130982845
4274 3 -2.0 17.7780774837867988 15.6555228257937884 23.3166798483983193
4275 3 -2.0 15.4427034501577616 15.6555228257937884 22.7430505193938934
4276 3 -2.0 17.2525330206487659 16.3888288880720161 25.5100003421027104
4277 3 -2.0 17.7780774837867988 13.1843937166854346 23.3166798483983193
4278 3 -2.0 14.9171589870197270 18.8599579971803735 24.9363710130982845
4279 3 -2.0 17.2525330206487659 18.8599579971803735 25.5100003421027104
4280 3 -2.0 15.4427034501577616 13.1843937166854346 22.7430505193938934
4281 1 2.0 16.6942818790033485 14.4199582712396133 26.4217903098424394
4282 1 2.0 16.0009545918031755 17.6243934426261930 30.6045425264717288
4283 1 2.0 18.3363286254322126 17.6243934426261930 28.6151108035468305
4284 1 2.0 14.3589078453743113 14.4199582712396133 28.4112220327673377
4285 2 4.0 14.0122442017742266 16.0221758569329040 26.3198459244526930
4286 2 4.0 16.3476182354032638 16.0221758569329040 28.5131664181570841
4287 2 4.0 14.0122442017742266 12.8177406855463225 26.3198459244526930
4288 2 4.0 16.3476182354032638 12.8177406855463225 28.5131664181570841
4289 3 -2.0 16.1892319978116177 14.4199582712396133 29.0170133269520569
4290 3 -2.0 16.5060044729949098 17.6243934426261930 28.0093195093621077
4291 3 -2.0 14.1706304393658709 17.6243934426261930 26.8236928332476694
4292 3 -2.0 18.5246060314406549 14.4199582712396133 30.2026400030665023
4293 3 -2.0 14.9171589870197270 16.3888288880720161 29.3230120005070667
4294 3 -2.0 17.7780774837867988 15.6555228257937884 27.7033208358071015
4295 3 -2.0 15.4427034501577616 15.6555228257937884 27.1296915068026756
4296 3 -2.0 17.2525330206487659 16.3888288880720161 29.8966413295114926
4297 3 -2.0 17.7780774837867988 13.1843937166854346 27.7033208358071015
4298 3 -2.0 14.9171589870197270 18.8599579971803735 29.3230120005070667
4299 3 -2.0 17.2525330206487659 18.8599579971803735 29.8966413295114926
4300 3 -2.0 15.4427034501577616 13.1843937166854346 27.1296915068026756
4301 1 2.0 16.6942818790033485 14.4199582712396133 30.8084312972512215
4302 1 2.0 16.0009545918031755 17.6243934426261930 34.9911835138805074
4303 1 2.0 18.3363286254322126 17.6243934426261930 33.0017517909556162
4304 1 2.0 14.3589078453743113 14.4199582712396133 32.7978630201761163
4305 2 4.0 14.0122442017742266 16.0221758569329040 30.7064869118614752
4306 2 4.0 16.3476182354032638 16.0221758569329040 32.8998074055658662
4307 2 4.0 14.0122442017742266 12.8177406855463225 30.7064869118614752
4308 2 4.0 16.3476182354032638 12.8177406855463225 32.8998074055658662
4309 3 -2.0 16.1892319978116177 14.4199582712396133 33.4036543143608355
4310 3 -2.0 16.5060044729949098 17.6243934426261930 32.3959604967708898
4311 3 -2.0 14.1706304393658709 17.6243934426261930 31.2103338206564516
4312 3 -2.0 18.5246060314406549 14.4199582712396133 34.5892809904752880
4313 3 -2.0 14.9171589870197270 16.3888288880720161 33.7096529879158524
4314 3 -2.0 17.7780774837867988 15.6555228257937884 32.0899618232158801
4315 3 -2.0 15.4427034501577616 15.6555228257937884 31.5163324942114578
4316 3 -2.0 17.2525330206487659 16.3888288880720161 34.2832823169202712
4317 3 -2.0 17.7780774837867988 13.1843937166854346 32.0899618232158801
4318 3 -2.0 14.9171589870197270 18.8599579971803735 33.7096529879158524
4319 3 -2.0 17.2525330206487659 18.8599579971803735 34.2832823169202712
4320 3 -2.0 15.4427034501577616 13.1843937166854346 31.5163324942114578
4321 1 2.0 16.6942818790033485 20.8288286140127745 0.1019443853897463
4322 1 2.0 16.0009545918031755 24.0332637853993560 4.2846966020190349
4323 1 2.0 18.3363286254322126 24.0332637853993560 2.2952648790941383
4324 1 2.0 14.3589078453743113 20.8288286140127745 2.0913761083146447
4325 2 4.0 14.0122442017742266 22.4310461997060635 0.0000000000000000
4326 2 4.0 16.3476182354032638 22.4310461997060635 2.1933204937043911
4327 2 4.0 14.0122442017742266 19.2266110283194820 0.0000000000000000
4328 2 4.0 16.3476182354032638 19.2266110283194820 2.1933204937043911
4329 3 -2.0 16.1892319978116177 20.8288286140127745 2.6971674024993644
4330 3 -2.0 16.5060044729949098 24.0332637853993560 1.6894735849094176
4331 3 -2.0 14.1706304393658709 24.0332637853993560 0.5038469087949736
4332 3 -2.0 18.5246060314406549 20.8288286140127745 3.8827940786138089
4333 3 -2.0 14.9171589870197270 22.7976992308451756 3.0031660760543750
4334 3 -2.0 17.7780774837867988 22.0643931685669514 1.3834749113544080
4335 3 -2.0 15.4427034501577616 22.0643931685669514 0.8098455823499836
4336 3 -2.0 17.2525330206487659 22.7976992308451756 3.5767954050587982
4337 3 -2.0 17.7780774837867988 19.5932640594585941 1.3834749113544080
4338 3 -2.0 14.9171589870197270 25.2688283399535329 3.0031660760543750
4339 3 -2.0 17.2525330206487659 25.2688283399535329 3.5767954050587982
4340 3 -2.0 15.4427034501577616 19.5932640594585941 0.8098455823499836
4341 1 2.0 16.6942818790033485 20.8288286140127745 4.4885853727985285
4342 1 2.0 16.0009545918031755 24.0332637853993560 8.6713375894278162
4343 1 2.0 18.3363286254322126 24.0332637853993560 6.6819058665029205
4344 1 2.0 14.3589078453743113 20.8288286140127745 6.4780170957234269
4345 2 4.0 14.0122442017742266 22.4310461997060635 4.3866409874087822
4346 2 4.0 16.3476182354032638 22.4310461997060635 6.5799614811131732
4347 2 4.0 14.0122442017742266 19.2266110283194820 4.3866409874087822
4348 2 4.0 16.3476182354032638 19.2266110283194820 6.5799614811131732
4349 3 -2.0 16.1892319978116177 20.8288286140127745 7.0838083899081470
4350 3 -2.0 16.5060044729949098 24.0332637853993560 6.0761145723181995
4351 3 -2.0 14.1706304393658709 24.0332637853993560 4.8904878962037559
4352 3 -2.0 18.5246060314406549 20.8288286140127745 8.2694350660225915
4353 3 -2.0 14.9171589870197270 22.7976992308451756 7.3898070634631576
4354 3 -2.0 17.7780774837867988 22.0643931685669514 5.7701158987631906
4355 3 -2.0 15.4427034501577616 22.0643931685669514 5.1964865697587657
4356 3 -2.0 17.2525330206487659 22.7976992308451756 7.9634363924675799
4357 3 -2.0 17.7780774837867988 19.5932640594585941 5.7701158987631906
4358 3 -2.0 14.9171589870197270 25.2688283399535329 7.3898070634631576
4359 3 -2.0 17.2525330206487659 25.2688283399535329 7.9634363924675799
4360 3 -2.0 15.4427034501577616 19.5932640594585941 5.1964865697587657
4361 1 2.0 16.6942818790033485 20.8288286140127745 8.8752263602073107
4362 1 2.0 16.0009545918031755 24.0332637853993560 13.0579785768365984
4363 1 2.0 18.3363286254322126 24.0332637853993560 11.0685468539117036
4364 1 2.0 14.3589078453743113 20.8288286140127745 10.8646580831322090
4365 2 4.0 14.0122442017742266 22.4310461997060635 8.7732819748175643
4366 2 4.0 16.3476182354032638 22.4310461997060635 10.9666024685219554
4367 2 4.0 14.0122442017742266 19.2266110283194820 8.7732819748175643
4368 2 4.0 16.3476182354032638 19.2266110283194820 10.9666024685219554
4369 3 -2.0 16.1892319978116177 20.8288286140127745 11.4704493773169283
4370 3 -2.0 16.5060044729949098 24.0332637853993560 10.4627555597269826
4371 3 -2.0 14.1706304393658709 24.0332637853993560 9.2771288836125372
4372 3 -2.0 18.5246060314406549 20.8288286140127745 12.6560760534313737
4373 3 -2.0 14.9171589870197270 22.7976992308451756 11.7764480508719398
4374 3 -2.0 17.7780774837867988 22.0643931685669514 10.1567568861719728
4375 3 -2.0 15.4427034501577616 22.0643931685669514 9.5831275571675469
4376 3 -2.0 17.2525330206487659 22.7976992308451756 12.3500773798763621
4377 3 -2.0 17.7780774837867988 19.5932640594585941 10.1567568861719728
4378 3 -2.0 14.9171589870197270 25.2688283399535329 11.7764480508719398
4379 3 -2.0 17.2525330206487659 25.2688283399535329 12.3500773798763621
4380 3 -2.0 15.4427034501577616 19.5932640594585941 9.5831275571675469
4381 1 2.0 16.6942818790033485 20.8288286140127745 13.2618673476160929
4382 1 2.0 16.0009545918031755 24.0332637853993560 17.4446195642453823
4383 1 2.0 18.3363286254322126 24.0332637853993560 15.4551878413204857
4384 1 2.0 14.3589078453743113 20.8288286140127745 15.2512990705409912
4385 2 4.0 14.0122442017742266 22.4310461997060635 13.1599229622263465
4386 2 4.0 16.3476182354032638 22.4310461997060635 15.3532434559307376
4387 2 4.0 14.0122442017742266 19.2266110283194820 13.1599229622263465
4388 2 4.0 16.3476182354032638 19.2266110283194820 15.3532434559307376
4389 3 -2.0 16.1892319978116177 20.8288286140127745 15.8570903647257104
4390 3 -2.0 16.5060044729949098 24.0332637853993560 14.8493965471357647
4391 3 -2.0 14.1706304393658709 24.0332637853993560 13.6637698710213193
4392 3 -2.0 18.5246060314406549 20.8288286140127745 17.0427170408401558
4393 3 -2.0 14.9171589870197270 22.7976992308451756 16.1630890382807237
4394 3 -2.0 17.7780774837867988 22.0643931685669514 14.5433978735807550
4395 3 -2.0 15.4427034501577616 22.0643931685669514 13.9697685445763291
4396 3 -2.0 17.2525330206487659 22.7976992308451756 16.7367183672851425
4397 3 -2.0 17.7780774837867988 19.5932640594585941 14.5433978735807550
4398 3 -2.0 14.9171589870197270 25.2688283399535329 16.1630890382807237
4399 3 -2.0 17.2525330206487659 25.2688283399535329 16.7367183672851425
4400 3 -2.0 15.4427034501577616 19.5932640594585941 13.9697685445763291
4401 1 2.0 16.6942818790033485 20.8288286140127745 17.6485083350248750
4402 1 2.0 16.0009545918031755 24.0332637853993560 21.8312605516541645
4403 1 2.0 18.3363286254322126 24.0332637853993560 19.8418288287292661
4404 1 2.0 14.3589078453743113 20.8288286140127745 19.6379400579497734
4405 2 4.0 14.0122442017742266 22.4310461997060635 17.5465639496351287
4406 2 4.0 16.3476182354032638 22.4310461997060635 19.7398844433395197
4407 2 4.0 14.0122442017742266 19.2266110283194820 17.5465639496351287
4408 2 4.0 16.3476182354032638 19.2266110283194820 19.7398844433395197
4409 3 -2.0 16.1892319978116177 20.8288286140127745 20.2437313521344926
4410 3 -2.0 16.5060044729949098 24.0332637853993560 19.2360375345445433
4411 3 -2.0 14.1706304393658709 24.0332637853993560 18.0504108584301051
4412 3 -2.0 18.5246060314406549 20.8288286140127745 21.4293580282489380
4413 3 -2.0 14.9171589870197270 22.7976992308451756 20.5497300256895024
4414 3 -2.0 17.7780774837867988 22.0643931685669514 18.9300388609895371
4415 3 -2.0 15.4427034501577616 22.0643931685669514 18.3564095319851113
4416 3 -2.0 17.2525330206487659 22.7976992308451756 21.1233593546939282
4417 3 -2.0 17.7780774837867988 19.5932640594585941 18.9300388609895371
4418 3 -2.0 14.9171589870197270 25.2688283399535329 20.5497300256895024
4419 3 -2.0 17.2525330206487659 25.2688283399535329 21.1233593546939282
4420 3 -2.0 15.4427034501577616 19.5932640594585941 18.3564095319851113
4421 1 2.0 16.6942818790033485 20.8288286140127745 22.0351493224336572
4422 1 2.0 16.0009545918031755 24.0332637853993560 26.2179015390629466
4423 1 2.0 18.3363286254322126 24.0332637853993560 24.2284698161380483
4424 1 2.0 14.3589078453743113 20.8288286140127745 24.0245810453585555
4425 2 4.0 14.0122442017742266 22.4310461997060635 21.9332049370439108
4426 2 4.0 16.3476182354032638 22.4310461997060635 24.1265254307483019
4427 2 4.0 14.0122442017742266 19.2266110283194820 21.9332049370439108
4428 2 4.0 16.3476182354032638 19.2266110283194820 24.1265254307483019
4429 3 -2.0 16.1892319978116177 20.8288286140127745 24.6303723395432748
4430 3 -2.0 16.5060044729949098 24.0332637853993560 23.6226785219533255
4431 3 -2.0 14.1706304393658709 24.0332637853993560 22.4370518458388872
4432 3 -2.0 18.5246060314406549 20.8288286140127745 25.8159990156577202
4433 3 -2.0 14.9171589870197270 22.7976992308451756 24.9363710130982845
4434 3 -2.0 17.7780774837867988 22.0643931685669514 23.3166798483983193
4435 3 -2.0 15.4427034501577616 22.0643931685669514 22.7430505193938934
4436 3 -2.0 17.2525330206487659 22.7976992308451756 25.5100003421027104
4437 3 -2.0 17.7780774837867988 19.5932640594585941 23.3166798483983193
4438 3 -2.0 14.9171589870197270 25.2688283399535329 24.9363710130982845
4439 3 -2.0 17.2525330206487659 25.2688283399535329 25.5100003421027104
4440 3 -2.0 15.4427034501577616 19.5932640594585941 22.7430505193938934
4441 1 2.0 16.6942818790033485 20.8288286140127745 26.4217903098424394
4442 1 2.0 16.0009545918031755 24.0332637853993560 30.6045425264717288
4443 1 2.0 18.3363286254322126 24.0332637853993560 28.6151108035468305
4444 1 2.0 14.3589078453743113 20.8288286140127745 28.4112220327673377
4445 2 4.0 14.0122442017742266 22.4310461997060635 26.3198459244526930
4446 2 4.0 16.3476182354032638 22.4310461997060635 28.5131664181570841
4447 2 4.0 14.0122442017742266 19.2266110283194820 26.3198459244526930
4448 2 4.0 16.3476182354032638 19.2266110283194820 28.5131664181570841
4449 3 -2.0 16.1892319978116177 20.8288286140127745 29.0170133269520569
4450 3 -2.0 16.5060044729949098 24.0332637853993560 28.0093195093621077
4451 3 -2.0 14.1706304393658709 24.0332637853993560 26.8236928332476694
4452 3 -2.0 18.5246060314406549 20.8288286140127745 30.2026400030665023
4453 3 -2.0 14.9171589870197270 22.7976992308451756 29.3230120005070667
4454 3 -2.0 17.7780774837867988 22.0643931685669514 27.7033208358071015
4455 3 -2.0 15.4427034501577616 22.0643931685669514 27.1296915068026756
4456 3 -2.0 17.2525330206487659 22.7976992308451756 29.8966413295114926
4457 3 -2.0 17.7780774837867988 19.5932640594585941 27.7033208358071015
4458 3 -2.0 14.9171589870197270 25.2688283399535329 29.3230120005070667
4459 3 -2.0 17.2525330206487659 25.2688283399535329 29.8966413295114926
4460 3 -2.0 15.4427034501577616 19.5932640594585941 27.1296915068026756
4461 1 2.0 16.6942818790033485 20.8288286140127745 30.8084312972512215
4462 1 2.0 16.0009545918031755 24.0332637853993560 34.9911835138805074
4463 1 2.0 18.3363286254322126 24.0332637853993560 33.0017517909556162
4464 1 2.0 14.3589078453743113 20.8288286140127745 32.7978630201761163
4465 2 4.0 14.0122442017742266 22.4310461997060635 30.7064869118614752
4466 2 4.0 16.3476182354032638 22.4310461997060635 32.8998074055658662
4467 2 4.0 14.0122442017742266 19.2266110283194820 30.7064869118614752
4468 2 4.0 16.3476182354032638 19.2266110283194820 32.8998074055658662
4469 3 -2.0 16.1892319978116177 20.8288286140127745 33.4036543143608355
4470 3 -2.0 16.5060044729949098 24.0332637853993560 32.3959604967708898
4471 3 -2.0 14.1706304393658709 24.0332637853993560 31.2103338206564516
4472 3 -2.0 18.5246060314406549 20.8288286140127745 34.5892809904752880
4473 3 -2.0 14.9171589870197270 22.7976992308451756 33.7096529879158524
4474 3 -2.0 17.7780774837867988 22.0643931685669514 32.0899618232158801
4475 3 -2.0 15.4427034501577616 22.0643931685669514 31.5163324942114578
4476 3 -2.0 17.2525330206487659 22.7976992308451756 34.2832823169202712
4477 3 -2.0 17.7780774837867988 19.5932640594585941 32.0899618232158801
4478 3 -2.0 14.9171589870197270 25.2688283399535329 33.7096529879158524
4479 3 -2.0 17.2525330206487659 25.2688283399535329 34.2832823169202712
4480 3 -2.0 15.4427034501577616 19.5932640594585941 31.5163324942114578
4481 1 2.0 16.6942818790033485 27.2376989567859340 0.1019443853897463
4482 1 2.0 16.0009545918031755 30.4421341281725155 4.2846966020190349
4483 1 2.0 18.3363286254322126 30.4421341281725155 2.2952648790941383
4484 1 2.0 14.3589078453743113 27.2376989567859340 2.0913761083146447
4485 2 4.0 14.0122442017742266 28.8399165424792265 0.0000000000000000
4486 2 4.0 16.3476182354032638 28.8399165424792265 2.1933204937043911
4487 2 4.0 14.0122442017742266 25.6354813710926450 0.0000000000000000
4488 2 4.0 16.3476182354032638 25.6354813710926450 2.1933204937043911
4489 3 -2.0 16.1892319978116177 27.2376989567859340 2.6971674024993644
4490 3 -2.0 16.5060044729949098 30.4421341281725155 1.6894735849094176
4491 3 -2.0 14.1706304393658709 30.4421341281725155 0.5038469087949736
4492 3 -2.0 18.5246060314406549 27.2376989567859340 3.8827940786138089
4493 3 -2.0 14.9171589870197270 29.2065695736183386 3.0031660760543750
4494 3 -2.0 17.7780774837867988 28.4732635113401109 1.3834749113544080
4495 3 -2.0 15.4427034501577616 28.4732635113401109 0.8098455823499836
4496 3 -2.0 17.2525330206487659 29.2065695736183386 3.5767954050587982
4497 3 -2.0 17.7780774837867988 26.0021344022317606 1.3834749113544080
4498 3 -2.0 14.9171589870197270 31.6776986827266924 3.0031660760543750
4499 3 -2.0 17.2525330206487659 31.6776986827266924 3.5767954050587982
4500 3 -2.0 15.4427034501577616 26.0021344022317606 0.8098455823499836
4501 1 2.0 16.6942818790033485 27.2376989567859340 4.4885853727985285
4502 1 2.0 16.0009545918031755 30.4421341281725155 8.6713375894278162
4503 1 2.0 18.3363286254322126 30.4421341281725155 6.6819058665029205
4504 1 2.0 14.3589078453743113 27.2376989567859340 6.4780170957234269
4505 2 4.0 14.0122442017742266 28.8399165424792265 4.3866409874087822
4506 2 4.0 16.3476182354032638 28.8399165424792265 6.5799614811131732
4507 2 4.0 14.0122442017742266 25.6354813710926450 4.3866409874087822
4508 2 4.0 16.3476182354032638 25.6354813710926450 6.5799614811131732
4509 3 -2.0 16.1892319978116177 27.2376989567859340 7.0838083899081470
4510 3 -2.0 16.5060044729949098 30.4421341281725155 6.0761145723181995
4511 3 -2.0 14.1706304393658709 30.4421341281725155 4.8904878962037559
4512 3 -2.0 18.5246060314406549 27.2376989567859340 8.2694350660225915
4513 3 -2.0 14.9171589870197270 29.2065695736183386 7.3898070634631576
4514 3 -2.0 17.7780774837867988 28.4732635113401109 5.7701158987631906
4515 3 -2.0 15.4427034501577616 28.4732635113401109 5.1964865697587657
4516 3 -2.0 17.2525330206487659 29.2065695736183386 7.9634363924675799
4517 3 -2.0 17.7780774837867988 26.0021344022317606 5.7701158987631906
4518 3 -2.0 14.9171589870197270 31.6776986827266924 7.3898070634631576
4519 3 -2.0 17.2525330206487659 31.6776986827266924 7.9634363924675799
4520 3 -2.0 15.4427034501577616 26.0021344022317606 5.1964865697587657
4521 1 2.0 16.6942818790033485 27.2376989567859340 8.8752263602073107
4522 1 2.0 16.0009545918031755 30.4421341281725155 13.0579785768365984
4523 1 2.0 18.3363286254322126 30.4421341281725155 11.0685468539117036
4524 1 2.0 14.3589078453743113 27.2376989567859340 10.8646580831322090
4525 2 4.0 14.0122442017742266 28.8399165424792265 8.7732819748175643
4526 2 4.0 16.3476182354032638 28.8399165424792265 10.9666024685219554
4527 2 4.0 14.0122442017742266 25.6354813710926450 8.7732819748175643
4528 2 4.0 16.3476182354032638 25.6354813710926450 10.9666024685219554
4529 3 -2.0 16.1892319978116177 27.2376989567859340 11.4704493773169283
4530 3 -2.0 16.5060044729949098 30.4421341281725155 10.4627555597269826
4531 3 -2.0 14.1706304393658709 30.4421341281725155 9.2771288836125372
4532 3 -2.0 18.5246060314406549 27.2376989567859340 12.6560760534313737
4533 3 -2.0 14.9171589870197270 29.2065695736183386 11.7764480508719398
4534 3 -2.0 17.7780774837867988 28.4732635113401109 10.1567568861719728
4535 3 -2.0 15.4427034501577616 28.4732635113401109 9.5831275571675469
4536 3 -2.0 17.2525330206487659 29.2065695736183386 12.3500773798763621
4537 3 -2.0 17.7780774837867988 26.0021344022317606 10.1567568861719728
4538 3 -2.0 14.9171589870197270 31.6776986827266924 11.7764480508719398
4539 3 -2.0 17.2525330206487659 31.6776986827266924 12.3500773798763621
4540 3 -2.0 15.4427034501577616 26.0021344022317606 9.5831275571675469
4541 1 2.0 16.6942818790033485 27.2376989567859340 13.2618673476160929
4542 1 2.0 16.0009545918031755 30.4421341281725155 17.4446195642453823
4543 1 2.0 18.3363286254322126 30.4421341281725155 15.4551878413204857
4544 1 2.0 14.3589078453743113 27.2376989567859340 15.2512990705409912
4545 2 4.0 14.0122442017742266 28.8399165424792265 13.1599229622263465
4546 2 4.0 16.3476182354032638 28.8399165424792265 15.3532434559307376
4547 2 4.0 14.0122442017742266 25.6354813710926450 13.1599229622263465
4548 2 4.0 16.3476182354032638 25.6354813710926450 15.3532434559307376
4549 3 -2.0 16.1892319978116177 27.2376989567859340 15.8570903647257104
4550 3 -2.0 16.5060044729949098 30.4421341281725155 14.8493965471357647
4551 3 -2.0 14.1706304393658709 30.4421341281725155 13.6637698710213193
4552 3 -2.0 18.5246060314406549 27.2376989567859340 17.0427170408401558
4553 3 -2.0 14.9171589870197270 29.2065695736183386 16.1630890382807237
4554 3 -2.0 17.7780774837867988 28.4732635113401109 14.5433978735807550
4555 3 -2.0 15.4427034501577616 28.4732635113401109 13.9697685445763291
4556 3 -2.0 17.2525330206487659 29.2065695736183386 16.7367183672851425
4557 3 -2.0 17.7780774837867988 26.0021344022317606 14.5433978735807550
4558 3 -2.0 14.9171589870197270 31.6776986827266924 16.1630890382807237
4559 3 -2.0 17.2525330206487659 31.6776986827266924 16.7367183672851425
4560 3 -2.0 15.4427034501577616 26.0021344022317606 13.9697685445763291
4561 1 2.0 16.6942818790033485 27.2376989567859340 17.6485083350248750
4562 1 2.0 16.0009545918031755 30.4421341281725155 21.8312605516541645
4563 1 2.0 18.3363286254322126 30.4421341281725155 19.8418288287292661
4564 1 2.0 14.3589078453743113 27.2376989567859340 19.6379400579497734
4565 2 4.0 14.0122442017742266 28.8399165424792265 17.5465639496351287
4566 2 4.0 16.3476182354032638 28.8399165424792265 19.7398844433395197
4567 2 4.0 14.0122442017742266 25.6354813710926450 17.5465639496351287
4568 2 4.0 16.3476182354032638 25.6354813710926450 19.7398844433395197
4569 3 -2.0 16.1892319978116177 27.2376989567859340 20.2437313521344926
4570 3 -2.0 16.5060044729949098 30.4421341281725155 19.2360375345445433
4571 3 -2.0 14.1706304393658709 30.4421341281725155 18.0504108584301051
4572 3 -2.0 18.5246060314406549 27.2376989567859340 21.4293580282489380
4573 3 -2.0 14.9171589870197270 29.2065695736183386 20.5497300256895024
4574 3 -2.0 17.7780774837867988 28.4732635113401109 18.9300388609895371
4575 3 -2.0 15.4427034501577616 28.4732635113401109 18.3564095319851113
4576 3 -2.0 17.2525330206487659 29.2065695736183386 21.1233593546939282
4577 3 -2.0 17.7780774837867988 26.0021344022317606 18.9300388609895371
4578 3 -2.0 14.9171589870197270 31.6776986827266924 20.5497300256895024
4579 3 -2.0 17.2525330206487659 31.6776986827266924 21.1233593546939282
4580 3 -2.0 15.4427034501577616 26.0021344022317606 18.3564095319851113
4581 1 2.0 16.6942818790033485 27.2376989567859340 22.0351493224336572
4582 1 2.0 16.0009545918031755 30.4421341281725155 26.2179015390629466
4583 1 2.0 18.3363286254322126 30.4421341281725155 24.2284698161380483
4584 1 2.0 14.3589078453743113 27.2376989567859340 24.0245810453585555
4585 2 4.0 14.0122442017742266 28.8399165424792265 21.9332049370439108
4586 2 4.0 16.3476182354032638 28.8399165424792265 24.1265254307483019
4587 2 4.0 14.0122442017742266 25.6354813710926450 21.9332049370439108
4588 2 4.0 16.3476182354032638 25.6354813710926450 24.1265254307483019
4589 3 -2.0 16.1892319978116177 27.2376989567859340 24.6303723395432748
4590 3 -2.0 16.5060044729949098 30.4421341281725155 23.6226785219533255
4591 3 -2.0 14.1706304393658709 30.4421341281725155 22.4370518458388872
4592 3 -2.0 18.5246060314406549 27.2376989567859340 25.8159990156577202
4593 3 -2.0 14.9171589870197270 29.2065695736183386 24.9363710130982845
4594 3 -2.0 17.7780774837867988 28.4732635113401109 23.3166798483983193
4595 3 -2.0 15.4427034501577616 28.4732635113401109 22.7430505193938934
4596 3 -2.0 17.2525330206487659 29.2065695736183386 25.5100003421027104
4597 3 -2.0 17.7780774837867988 26.0021344022317606 23.3166798483983193
4598 3 -2.0 14.9171589870197270 31.6776986827266924 24.9363710130982845
4599 3 -2.0 17.2525330206487659 31.6776986827266924 25.5100003421027104
4600 3 -2.0 15.4427034501577616 26.0021344022317606 22.7430505193938934
4601 1 2.0 16.6942818790033485 27.2376989567859340 26.4217903098424394
4602 1 2.0 16.0009545918031755 30.4421341281725155 30.6045425264717288
4603 1 2.0 18.3363286254322126 30.4421341281725155 28.6151108035468305
4604 1 2.0 14.3589078453743113 27.2376989567859340 28.4112220327673377
4605 2 4.0 14.0122442017742266 28.8399165424792265 26.3198459244526930
4606 2 4.0 16.3476182354032638 28.8399165424792265 28.5131664181570841
4607 2 4.0 14.0122442017742266 25.6354813710926450 26.3198459244526930
4608 2 4.0 16.3476182354032638 25.6354813710926450 28.5131664181570841
4609 3 -2.0 16.1892319978116177 27.2376989567859340 29.0170133269520569
4610 3 -2.0 16.5060044729949098 30.4421341281725155 28.0093195093621077
4611 3 -2.0 14.1706304393658709 30.4421341281725155 26.8236928332476694
4612 3 -2.0 18.5246060314406549 27.2376989567859340 30.2026400030665023
4613 3 -2.0 14.9171589870197270 29.2065695736183386 29.3230120005070667
4614 3 -2.0 17.7780774837867988 28.4732635113401109 27.7033208358071015
4615 3 -2.0 15.4427034501577616 28.4732635113401109 27.1296915068026756
4616 3 -2.0 17.2525330206487659 29.2065695736183386 29.8966413295114926
4617 3 -2.0 17.7780774837867988 26.0021344022317606 27.7033208358071015
4618 3 -2.0 14.9171589870197270 31.6776986827266924 29.3230120005070667
4619 3 -2.0 17.2525330206487659 31.6776986827266924 29.8966413295114926
4620 3 -2.0 15.4427034501577616 26.0021344022317606 27.1296915068026756
4621 1 2.0 16.6942818790033485 27.2376989567859340 30.8084312972512215
4622 1 2.0 16.0009545918031755 30.4421341281725155 34.9911835138805074
4623 1 2.0 18.3363286254322126 30.4421341281725155 33.0017517909556162
4624 1 2.0 14.3589078453743113 27.2376989567859340 32.7978630201761163
4625 2 4.0 14.0122442017742266 28.8399165424792265 30.7064869118614752
4626 2 4.0 16.3476182354032638 28.8399165424792265 32.8998074055658662
4627 2 4.0 14.0122442017742266 25.6354813710926450 30.7064869118614752
4628 2 4.0 16.3476182354032638 25.6354813710926450 32.8998074055658662
4629 3 -2.0 16.1892319978116177 27.2376989567859340 33.4036543143608355
4630 3 -2.0 16.5060044729949098 30.4421341281725155 32.3959604967708898
4631 3 -2.0 14.1706304393658709 30.4421341281725155 31.2103338206564516
4632 3 -2.0 18.5246060314406549 27.2376989567859340 34.5892809904752880
4633 3 -2.0 14.9171589870197270 29.2065695736183386 33.7096529879158524
4634 3 -2.0 17.7780774837867988 28.4732635113401109 32.0899618232158801
4635 3 -2.0 15.4427034501577616 28.4732635113401109 31.5163324942114578
4636 3 -2.0 17.2525330206487659 29.2065695736183386 34.2832823169202712
4637 3 -2.0 17.7780774837867988 26.0021344022317606 32.0899618232158801
4638 3 -2.0 14.9171589870197270 31.6776986827266924 33.7096529879158524
4639 3 -2.0 17.2525330206487659 31.6776986827266924 34.2832823169202712
4640 3 -2.0 15.4427034501577616 26.0021344022317606 31.5163324942114578
4641 1 2.0 16.6942818790033485 33.6465692995590970 0.1019443853897463
4642 1 2.0 16.0009545918031755 36.8510044709456750 4.2846966020190349
4643 1 2.0 18.3363286254322126 36.8510044709456750 2.2952648790941383
4644 1 2.0 14.3589078453743113 33.6465692995590970 2.0913761083146447
4645 2 4.0 14.0122442017742266 35.2487868852523860 0.0000000000000000
4646 2 4.0 16.3476182354032638 35.2487868852523860 2.1933204937043911
4647 2 4.0 14.0122442017742266 32.0443517138658081 0.0000000000000000
4648 2 4.0 16.3476182354032638 32.0443517138658081 2.1933204937043911
4649 3 -2.0 16.1892319978116177 33.6465692995590970 2.6971674024993644
4650 3 -2.0 16.5060044729949098 36.8510044709456750 1.6894735849094176
4651 3 -2.0 14.1706304393658709 36.8510044709456750 0.5038469087949736
4652 3 -2.0 18.5246060314406549 33.6465692995590970 3.8827940786138089
4653 3 -2.0 14.9171589870197270 35.6154399163915016 3.0031660760543750
4654 3 -2.0 17.7780774837867988 34.8821338541132704 1.3834749113544080
4655 3 -2.0 15.4427034501577616 34.8821338541132704 0.8098455823499836
4656 3 -2.0 17.2525330206487659 35.6154399163915016 3.5767954050587982
4657 3 -2.0 17.7780774837867988 32.4110047450049237 1.3834749113544080
4658 3 -2.0 14.9171589870197270 38.0865690254998555 3.0031660760543750
4659 3 -2.0 17.2525330206487659 38.0865690254998555 3.5767954050587982
4660 3 -2.0 15.4427034501577616 32.4110047450049237 0.8098455823499836
4661 1 2.0 16.6942818790033485 33.6465692995590970 4.4885853727985285
4662 1 2.0 16.0009545918031755 36.8510044709456750 8.6713375894278162
4663 1 2.0 18.3363286254322126 36.8510044709456750 6.6819058665029205
4664 1 2.0 14.3589078453743113 33.6465692995590970 6.4780170957234269
4665 2 4.0 14.0122442017742266 35.2487868852523860 4.3866409874087822
4666 2 4.0 16.3476182354032638 35.2487868852523860 6.5799614811131732
4667 2 4.0 14.0122442017742266 32.0443517138658081 4.3866409874087822
4668 2 4.0 16.3476182354032638 32.0443517138658081 6.5799614811131732
4669 3 -2.0 16.1892319978116177 33.6465692995590970 7.0838083899081470
4670 3 -2.0 16.5060044729949098 36.8510044709456750 6.0761145723181995
4671 3 -2.0 14.1706304393658709 36.8510044709456750 4.8904878962037559
4672 3 -2.0 18.5246060314406549 33.6465692995590970 8.2694350660225915
4673 3 -2.0 14.9171589870197270 35.6154399163915016 7.3898070634631576
4674 3 -2.0 17.7780774837867988 34.8821338541132704 5.7701158987631906
4675 3 -2.0 15.4427034501577616 34.8821338541132704 5.1964865697587657
4676 3 -2.0 17.2525330206487659 35.6154399163915016 7.9634363924675799
4677 3 -2.0 17.7780774837867988 32.4110047450049237 5.7701158987631906
4678 3 -2.0 14.9171589870197270 38.0865690254998555 7.3898070634631576
4679 3 -2.0 17.2525330206487659 38.0865690254998555 7.9634363924675799
4680 3 -2.0 15.4427034501577616 32.4110047450049237 5.1964865697587657
4681 1 2.0 16.6942818790033485 33.6465692995590970 8.8752263602073107
4682 1 2.0 16.0009545918031755 36.8510044709456750 13.0579785768365984
4683 1 2.0 18.3363286254322126 36.8510044709456750 11.0685468539117036
4684 1 2.0 14.3589078453743113 33.6465692995590970 10.8646580831322090
4685 2 4.0 14.0122442017742266 35.2487868852523860 8.7732819748175643
4686 2 4.0 16.3476182354032638 35.2487868852523860 10.9666024685219554
4687 2 4.0 14.0122442017742266 32.0443517138658081 8.7732819748175643
4688 2 4.0 16.3476182354032638 32.0443517138658081 10.9666024685219554
4689 3 -2.0 16.1892319978116177 33.6465692995590970 11.4704493773169283
4690 3 -2.0 16.5060044729949098 36.8510044709456750 10.4627555597269826
4691 3 -2.0 14.1706304393658709 36.8510044709456750 9.2771288836125372
4692 3 -2.0 18.5246060314406549 33.6465692995590970 12.6560760534313737
4693 3 -2.0 14.9171589870197270 35.6154399163915016 11.7764480508719398
4694 3 -2.0 17.7780774837867988 34.8821338541132704 10.1567568861719728
4695 3 -2.0 15.4427034501577616 34.8821338541132704 9.5831275571675469
4696 3 -2.0 17.2525330206487659 35.6154399163915016 12.3500773798763621
4697 3 -2.0 17.7780774837867988 32.4110047450049237 10.1567568861719728
4698 3 -2.0 14.9171589870197270 38.0865690254998555 11.7764480508719398
4699 3 -2.0 17.2525330206487659 38.0865690254998555 12.3500773798763621
4700 3 -2.0 15.4427034501577616 32.4110047450049237 9.5831275571675469
4701 1 2.0 16.6942818790033485 33.6465692995590970 13.2618673476160929
4702 1 2.0 16.0009545918031755 36.8510044709456750 17.4446195642453823
4703 1 2.0 18.3363286254322126 36.8510044709456750 15.4551878413204857
4704 1 2.0 14.3589078453743113 33.6465692995590970 15.2512990705409912
4705 2 4.0 14.0122442017742266 35.2487868852523860 13.1599229622263465
4706 2 4.0 16.3476182354032638 35.2487868852523860 15.3532434559307376
4707 2 4.0 14.0122442017742266 32.0443517138658081 13.1599229622263465
4708 2 4.0 16.3476182354032638 32.0443517138658081 15.3532434559307376
4709 3 -2.0 16.1892319978116177 33.6465692995590970 15.8570903647257104
4710 3 -2.0 16.5060044729949098 36.8510044709456750 14.8493965471357647
4711 3 -2.0 14.1706304393658709 36.8510044709456750 13.6637698710213193
4712 3 -2.0 18.5246060314406549 33.6465692995590970 17.0427170408401558
4713 3 -2.0 14.9171589870197270 35.6154399163915016 16.1630890382807237
4714 3 -2.0 17.7780774837867988 34.8821338541132704 14.5433978735807550
4715 3 -2.0 15.4427034501577616 34.8821338541132704 13.9697685445763291
4716 3 -2.0 17.2525330206487659 35.6154399163915016 16.7367183672851425
4717 3 -2.0 17.7780774837867988 32.4110047450049237 14.5433978735807550
4718 3 -2.0 14.9171589870197270 38.0865690254998555 16.1630890382807237
4719 3 -2.0 17.2525330206487659 38.0865690254998555 16.7367183672851425
4720 3 -2.0 15.4427034501577616 32.4110047450049237 13.9697685445763291
4721 1 2.0 16.6942818790033485 33.6465692995590970 17.6485083350248750
4722 1 2.0 16.0009545918031755 36.8510044709456750 21.8312605516541645
4723 1 2.0 18.3363286254322126 36.8510044709456750 19.8418288287292661
4724 1 2.0 14.3589078453743113 33.6465692995590970 19.6379400579497734
4725 2 4.0 14.0122442017742266 35.2487868852523860 17.5465639496351287
4726 2 4.0 16.3476182354032638 35.2487868852523860 19.7398844433395197
4727 2 4.0 14.0122442017742266 32.0443517138658081 17.5465639496351287
4728 2 4.0 16.3476182354032638 32.0443517138658081 19.7398844433395197
4729 3 -2.0 16.1892319978116177 33.6465692995590970 20.2437313521344926
4730 3 -2.0 16.5060044729949098 36.8510044709456750 19.2360375345445433
4731 3 -2.0 14.1706304393658709 36.8510044709456750 18.0504108584301051
4732 3 -2.0 18.5246060314406549 33.6465692995590970 21.4293580282489380
4733 3 -2.0 14.9171589870197270 35.6154399163915016 20.5497300256895024
4734 3 -2.0 17.7780774837867988 34.8821338541132704 18.9300388609895371
4735 3 -2.0 15.4427034501577616 34.8821338541132704 18.3564095319851113
4736 3 -2.0 17.2525330206487659 35.6154399163915016 21.1233593546939282
4737 3 -2.0 17.7780774837867988 32.4110047450049237 18.9300388609895371
4738 3 -2.0 14.9171589870197270 38.0865690254998555 20.5497300256895024
4739 3 -2.0 17.2525330206487659 38.0865690254998555 21.1233593546939282
4740 3 -2.0 15.4427034501577616 32.4110047450049237 18.3564095319851113
4741 1 2.0 16.6942818790033485 33.6465692995590970 22.0351493224336572
4742 1 2.0 16.0009545918031755 36.8510044709456750 26.2179015390629466
4743 1 2.0 18.3363286254322126 36.8510044709456750 24.2284698161380483
4744 1 2.0 14.3589078453743113 33.6465692995590970 24.0245810453585555
4745 2 4.0 14.0122442017742266 35.2487868852523860 21.9332049370439108
4746 2 4.0 16.3476182354032638 35.2487868852523860 24.1265254307483019
4747 2 4.0 14.0122442017742266 32.0443517138658081 21.9332049370439108
4748 2 4.0 16.3476182354032638 32.0443517138658081 24.1265254307483019
4749 3 -2.0 16.1892319978116177 33.6465692995590970 24.6303723395432748
4750 3 -2.0 16.5060044729949098 36.8510044709456750 23.6226785219533255
4751 3 -2.0 14.1706304393658709 36.8510044709456750 22.4370518458388872
4752 3 -2.0 18.5246060314406549 33.6465692995590970 25.8159990156577202
4753 3 -2.0 14.9171589870197270 35.6154399163915016 24.9363710130982845
4754 3 -2.0 17.7780774837867988 34.8821338541132704 23.3166798483983193
4755 3 -2.0 15.4427034501577616 34.8821338541132704 22.7430505193938934
4756 3 -2.0 17.2525330206487659 35.6154399163915016 25.5100003421027104
4757 3 -2.0 17.7780774837867988 32.4110047450049237 23.3166798483983193
4758 3 -2.0 14.9171589870197270 38.0865690254998555 24.9363710130982845
4759 3 -2.0 17.2525330206487659 38.0865690254998555 25.5100003421027104
4760 3 -2.0 15.4427034501577616 32.4110047450049237 22.7430505193938934
4761 1 2.0 16.6942818790033485 33.6465692995590970 26.4217903098424394
4762 1 2.0 16.0009545918031755 36.8510044709456750 30.6045425264717288
4763 1 2.0 18.3363286254322126 36.8510044709456750 28.6151108035468305
4764 1 2.0 14.3589078453743113 33.6465692995590970 28.4112220327673377
4765 2 4.0 14.0122442017742266 35.2487868852523860 26.3198459244526930
4766 2 4.0 16.3476182354032638 35.2487868852523860 28.5131664181570841
4767 2 4.0 14.0122442017742266 32.0443517138658081 26.3198459244526930
4768 2 4.0 16.3476182354032638 32.0443517138658081 28.5131664181570841
4769 3 -2.0 16.1892319978116177 33.6465692995590970 29.0170133269520569
4770 3 -2.0 16.5060044729949098 36.8510044709456750 28.0093195093621077
4771 3 -2.0 14.1706304393658709 36.8510044709456750 26.8236928332476694
4772 3 -2.0 18.5246060314406549 33.6465692995590970 30.2026400030665023
4773 3 -2.0 14.9171589870197270 35.6154399163915016 29.3230120005070667
4774 3 -2.0 17.7780774837867988 34.8821338541132704 27.7033208358071015
4775 3 -2.0 15.4427034501577616 34.8821338541132704 27.1296915068026756
4776 3 -2.0 17.2525330206487659 35.6154399163915016 29.8966413295114926
4777 3 -2.0 17.7780774837867988 32.4110047450049237 27.7033208358071015
4778 3 -2.0 14.9171589870197270 38.0865690254998555 29.3230120005070667
4779 3 -2.0 17.2525330206487659 38.0865690254998555 29.8966413295114926
4780 3 -2.0 15.4427034501577616 32.4110047450049237 27.1296915068026756
4781 1 2.0 16.6942818790033485 33.6465692995590970 30.8084312972512215
4782 1 2.0 16.0009545918031755 36.8510044709456750 34.9911835138805074
4783 1 2.0 18.3363286254322126 36.8510044709456750 33.0017517909556162
4784 1 2.0 14.3589078453743113 33.6465692995590970 32.7978630201761163
4785 2 4.0 14.0122442017742266 35.2487868852523860 30.7064869118614752
4786 2 4.0 16.3476182354032638 35.2487868852523860 32.8998074055658662
4787 2 4.0 14.0122442017742266 32.0443517138658081 30.7064869118614752
4788 2 4.0 16.3476182354032638 32.0443517138658081 32.8998074055658662
4789 3 -2.0 16.1892319978116177 33.6465692995590970 33.4036543143608355
4790 3 -2.0 16.5060044729949098 36.8510044709456750 32.3959604967708898
4791 3 -2.0 14.1706304393658709 36.8510044709456750 31.2103338206564516
4792 3 -2.0 18.5246060314406549 33.6465692995590970 34.5892809904752880
4793 3 -2.0 14.9171589870197270 35.6154399163915016 33.7096529879158524
4794 3 -2.0 17.7780774837867988 34.8821338541132704 32.0899618232158801
4795 3 -2.0 15.4427034501577616 34.8821338541132704 31.5163324942114578
4796 3 -2.0 17.2525330206487659 35.6154399163915016 34.2832823169202712
4797 3 -2.0 17.7780774837867988 32.4110047450049237 32.0899618232158801
4798 3 -2.0 14.9171589870197270 38.0865690254998555 33.7096529879158524
4799 3 -2.0 17.2525330206487659 38.0865690254998555 34.2832823169202712
4800 3 -2.0 15.4427034501577616 32.4110047450049237 31.5163324942114578
4801 1 2.0 16.6942818790033485 40.0554396423322601 0.1019443853897463
4802 1 2.0 16.0009545918031755 43.2598748137188380 4.2846966020190349
4803 1 2.0 18.3363286254322126 43.2598748137188380 2.2952648790941383
4804 1 2.0 14.3589078453743113 40.0554396423322601 2.0913761083146447
4805 2 4.0 14.0122442017742266 41.6576572280255490 0.0000000000000000
4806 2 4.0 16.3476182354032638 41.6576572280255490 2.1933204937043911
4807 2 4.0 14.0122442017742266 38.4532220566389640 0.0000000000000000
4808 2 4.0 16.3476182354032638 38.4532220566389640 2.1933204937043911
4809 3 -2.0 16.1892319978116177 40.0554396423322601 2.6971674024993644
4810 3 -2.0 16.5060044729949098 43.2598748137188380 1.6894735849094176
4811 3 -2.0 14.1706304393658709 43.2598748137188380 0.5038469087949736
4812 3 -2.0 18.5246060314406549 40.0554396423322601 3.8827940786138089
4813 3 -2.0 14.9171589870197270 42.0243102591646647 3.0031660760543750
4814 3 -2.0 17.7780774837867988 41.2910041968864334 1.3834749113544080
4815 3 -2.0 15.4427034501577616 41.2910041968864334 0.8098455823499836
4816 3 -2.0 17.2525330206487659 42.0243102591646647 3.5767954050587982
4817 3 -2.0 17.7780774837867988 38.8198750877780796 1.3834749113544080
4818 3 -2.0 14.9171589870197270 44.4954393682730114 3.0031660760543750
4819 3 -2.0 17.2525330206487659 44.4954393682730114 3.5767954050587982
4820 3 -2.0 15.4427034501577616 38.8198750877780796 0.8098455823499836
4821 1 2.0 16.6942818790033485 40.0554396423322601 4.4885853727985285
4822 1 2.0 16.0009545918031755 43.2598748137188380 8.6713375894278162
4823 1 2.0 18.3363286254322126 43.2598748137188380 6.6819058665029205
4824 1 2.0 14.3589078453743113 40.0554396423322601 6.4780170957234269
4825 2 4.0 14.0122442017742266 41.6576572280255490 4.3866409874087822
4826 2 4.0 16.3476182354032638 41.6576572280255490 6.5799614811131732
4827 2 4.0 14.0122442017742266 38.4532220566389640 4.3866409874087822
4828 2 4.0 16.3476182354032638 38.4532220566389640 6.5799614811131732
4829 3 -2.0 16.1892319978116177 40.0554396423322601 7.0838083899081470
4830 3 -2.0 16.5060044729949098 43.2598748137188380 6.0761145723181995
4831 3 -2.0 14.1706304393658709 43.2598748137188380 4.8904878962037559
4832 3 -2.0 18.5246060314406549 40.0554396423322601 8.2694350660225915
4833 3 -2.0 14.9171589870197270 42.0243102591646647 7.3898070634631576
4834 3 -2.0 17.7780774837867988 41.2910041968864334 5.7701158987631906
4835 3 -2.0 15.4427034501577616 41.2910041968864334 5.1964865697587657
4836 3 -2.0 17.2525330206487659 42.0243102591646647 7.9634363924675799
4837 3 -2.0 17.7780774837867988 38.8198750877780796 5.7701158987631906
4838 3 -2.0 14.9171589870197270 44.4954393682730114 7.3898070634631576
4839 3 -2.0 17.2525330206487659 44.4954393682730114 7.9634363924675799
4840 3 -2.0 15.4427034501577616 38.8198750877780796 5.1964865697587657
4841 1 2.0 16.6942818790033485 40.0554396423322601 8.8752263602073107
4842 1 2.0 16.0009545918031755 43.2598748137188380 13.0579785768365984
4843 1 2.0 18.3363286254322126 43.2598748137188380 11.0685468539117036
4844 1 2.0 14.3589078453743113 40.0554396423322601 10.8646580831322090
4845 2 4.0 14.0122442017742266 41.6576572280255490 8.7732819748175643
4846 2 4.0 16.3476182354032638 41.6576572280255490 10.9666024685219554
4847 2 4.0 14.0122442017742266 38.4532220566389640 8.7732819748175643
4848 2 4.0 16.3476182354032638 38.4532220566389640 10.9666024685219554
4849 3 -2.0 16.1892319978116177 40.0554396423322601 11.4704493773169283
4850 3 -2.0 16.5060044729949098 43.2598748137188380 10.4627555597269826
4851 3 -2.0 14.1706304393658709 43.2598748137188380 9.2771288836125372
4852 3 -2.0 18.5246060314406549 40.0554396423322601 12.6560760534313737
4853 3 -2.0 14.9171589870197270 42.0243102591646647 11.7764480508719398
4854 3 -2.0 17.7780774837867988 41.2910041968864334 10.1567568861719728
4855 3 -2.0 15.4427034501577616 41.2910041968864334 9.5831275571675469
4856 3 -2.0 17.2525330206487659 42.0243102591646647 12.3500773798763621
4857 3 -2.0 17.7780774837867988 38.8198750877780796 10.1567568861719728
4858 3 -2.0 14.9171589870197270 44.4954393682730114 11.7764480508719398
4859 3 -2.0 17.2525330206487659 44.4954393682730114 12.3500773798763621
4860 3 -2.0 15.4427034501577616 38.8198750877780796 9.5831275571675469
4861 1 2.0 16.6942818790033485 40.0554396423322601 13.2618673476160929
4862 1 2.0 16.0009545918031755 43.2598748137188380 17.4446195642453823
4863 1 2.0 18.3363286254322126 43.2598748137188380 15.4551878413204857
4864 1 2.0 14.3589078453743113 40.0554396423322601 15.2512990705409912
4865 2 4.0 14.0122442017742266 41.6576572280255490 13.1599229622263465
4866 2 4.0 16.3476182354032638 41.6576572280255490 15.3532434559307376
4867 2 4.0 14.0122442017742266 38.4532220566389640 13.1599229622263465
4868 2 4.0 16.3476182354032638 38.4532220566389640 15.3532434559307376
4869 3 -2.0 16.1892319978116177 40.0554396423322601 15.8570903647257104
4870 3 -2.0 16.5060044729949098 43.2598748137188380 14.8493965471357647
4871 3 -2.0 14.1706304393658709 43.2598748137188380 13.6637698710213193
4872 3 -2.0 18.5246060314406549 40.0554396423322601 17.0427170408401558
4873 3 -2.0 14.9171589870197270 42.0243102591646647 16.1630890382807237
4874 3 -2.0 17.7780774837867988 41.2910041968864334 14.5433978735807550
4875 3 -2.0 15.4427034501577616 41.2910041968864334 13.9697685445763291
4876 3 -2.0 17.2525330206487659 42.0243102591646647 16.7367183672851425
4877 3 -2.0 17.7780774837867988 38.8198750877780796 14.5433978735807550
4878 3 -2.0 14.9171589870197270 44.4954393682730114 16.1630890382807237
4879 3 -2.0 17.2525330206487659 44.4954393682730114 16.7367183672851425
4880 3 -2.0 15.4427034501577616 38.8198750877780796 13.9697685445763291
4881 1 2.0 16.6942818790033485 40.0554396423322601 17.6485083350248750
4882 1 2.0 16.0009545918031755 43.2598748137188380 21.8312605516541645
4883 1 2.0 18.3363286254322126 43.2598748137188380 19.8418288287292661
4884 1 2.0 14.3589078453743113 40.0554396423322601 19.6379400579497734
4885 2 4.0 14.0122442017742266 41.6576572280255490 17.5465639496351287
4886 2 4.0 16.3476182354032638 41.6576572280255490 19.7398844433395197
4887 2 4.0 14.0122442017742266 38.4532220566389640 17.5465639496351287
4888 2 4.0 16.3476182354032638 38.4532220566389640 19.7398844433395197
4889 3 -2.0 16.1892319978116177 40.0554396423322601 20.2437313521344926
4890 3 -2.0 16.5060044729949098 43.2598748137188380 19.2360375345445433
4891 3 -2.0 14.1706304393658709 43.2598748137188380 18.0504108584301051
4892 3 -2.0 18.5246060314406549 40.0554396423322601 21.4293580282489380
4893 3 -2.0 14.9171589870197270 42.0243102591646647 20.5497300256895024
4894 3 -2.0 17.7780774837867988 41.2910041968864334 18.9300388609895371
4895 3 -2.0 15.4427034501577616 41.2910041968864334 18.3564095319851113
4896 3 -2.0 17.2525330206487659 42.0243102591646647 21.1233593546939282
4897 3 -2.0 17.7780774837867988 38.8198750877780796 18.9300388609895371
4898 3 -2.0 14.9171589870197270 44.4954393682730114 20.5497300256895024
4899 3 -2.0 17.2525330206487659 44.4954393682730114 21.1233593546939282
4900 3 -2.0 15.4427034501577616 38.8198750877780796 18.3564095319851113
4901 1 2.0 16.6942818790033485 40.0554396423322601 22.0351493224336572
4902 1 2.0 16.0009545918031755 43.2598748137188380 26.2179015390629466
4903 1 2.0 18.3363286254322126 43.2598748137188380 24.2284698161380483
4904 1 2.0 14.3589078453743113 40.0554396423322601 24.0245810453585555
4905 2 4.0 14.0122442017742266 41.6576572280255490 21.9332049370439108
4906 2 4.0 16.3476182354032638 41.6576572280255490 24.1265254307483019
4907 2 4.0 14.0122442017742266 38.4532220566389640 21.9332049370439108
4908 2 4.0 16.3476182354032638 38.4532220566389640 24.1265254307483019
4909 3 -2.0 16.1892319978116177 40.0554396423322601 24.6303723395432748
4910 3 -2.0 16.5060044729949098 43.2598748137188380 23.6226785219533255
4911 3 -2.0 14.1706304393658709 43.2598748137188380 22.4370518458388872
4912 3 -2.0 18.5246060314406549 40.0554396423322601 25.8159990156577202
4913 3 -2.0 14.9171589870197270 42.0243102591646647 24.9363710130982845
4914 3 -2.0 17.7780774837867988 41.2910041968864334 23.3166798483983193
4915 3 -2.0 15.4427034501577616 41.2910041968864334 22.7430505193938934
4916 3 -2.0 17.2525330206487659 42.0243102591646647 25.5100003421027104
4917 3 -2.0 17.7780774837867988 38.8198750877780796 23.3166798483983193
4918 3 -2.0 14.9171589870197270 44.4954393682730114 24.9363710130982845
4919 3 -2.0 17.2525330206487659 44.4954393682730114 25.5100003421027104
4920 3 -2.0 15.4427034501577616 38.8198750877780796 22.7430505193938934
4921 1 2.0 16.6942818790033485 40.0554396423322601 26.4217903098424394
4922 1 2.0 16.0009545918031755 43.2598748137188380 30.6045425264717288
4923 1 2.0 18.3363286254322126 43.2598748137188380 28.6151108035468305
4924 1 2.0 14.3589078453743113 40.0554396423322601 28.4112220327673377
4925 2 4.0 14.0122442017742266 41.6576572280255490 26.3198459244526930
4926 2 4.0 16.3476182354032638 41.6576572280255490 28.5131664181570841
4927 2 4.0 14.0122442017742266 38.4532220566389640 26.3198459244526930
4928 2 4.0 16.3476182354032638 38.4532220566389640 28.5131664181570841
4929 3 -2.0 16.1892319978116177 40.0554396423322601 29.0170133269520569
4930 3 -2.0 16.5060044729949098 43.2598748137188380 28.0093195093621077
4931 3 -2.0 14.1706304393658709 43.2598748137188380 26.8236928332476694
4932 3 -2.0 18.5246060314406549 40.0554396423322601 30.2026400030665023
4933 3 -2.0 14.9171589870197270 42.0243102591646647 29.3230120005070667
4934 3 -2.0 17.7780774837867988 41.2910041968864334 27.7033208358071015
4935 3 -2.0 15.4427034501577616 41.2910041968864334 27.1296915068026756
4936 3 -2.0 17.2525330206487659 42.0243102591646647 29.8966413295114926
4937 3 -2.0 17.7780774837867988 38.8198750877780796 27.7033208358071015
4938 3 -2.0 14.9171589870197270 44.4954393682730114 29.3230120005070667
4939 3 -2.0 17.2525330206487659 44.4954393682730114 29.8966413295114926
4940 3 -2.0 15.4427034501577616 38.8198750877780796 27.1296915068026756
4941 1 2.0 16.6942818790033485 40.0554396423322601 30.8084312972512215
4942 1 2.0 16.0009545918031755 43.2598748137188380 34.9911835138805074
4943 1 2.0 18.3363286254322126 43.2598748137188380 33.0017517909556162
4944 1 2.0 14.3589078453743113 40.0554396423322601 32.7978630201761163
4945 2 4.0 14.0122442017742266 41.6576572280255490 30.7064869118614752
4946 2 4.0 16.3476182354032638 41.6576572280255490 32.8998074055658662
4947 2 4.0 14.0122442017742266 38.4532220566389640 30.7064869118614752
4948 2 4.0 16.3476182354032638 38.4532220566389640 32.8998074055658662
4949 3 -2.0 16.1892319978116177 40.0554396423322601 33.4036543143608355
4950 3 -2.0 16.5060044729949098 43.2598748137188380 32.3959604967708898
4951 3 -2.0 14.1706304393658709 43.2598748137188380 31.2103338206564516
4952 3 -2.0 18.5246060314406549 40.0554396423322601 34.5892809904752880
4953 3 -2.0 14.9171589870197270 42.0243102591646647 33.7096529879158524
4954 3 -2.0 17.7780774837867988 41.2910041968864334 32.0899618232158801
4955 3 -2.0 15.4427034501577616 41.2910041968864334 31.5163324942114578
4956 3 -2.0 17.2525330206487659 42.0243102591646647 34.2832823169202712
4957 3 -2.0 17.7780774837867988 38.8198750877780796 32.0899618232158801
4958 3 -2.0 14.9171589870197270 44.4954393682730114 33.7096529879158524
4959 3 -2.0 17.2525330206487659 44.4954393682730114 34.2832823169202712
4960 3 -2.0 15.4427034501577616 38.8198750877780796 31.5163324942114578
4961 1 2.0 16.6942818790033485 46.4643099851054160 0.1019443853897463
4962 1 2.0 16.0009545918031755 49.6687451564920011 4.2846966020190349
4963 1 2.0 18.3363286254322126 49.6687451564920011 2.2952648790941383
4964 1 2.0 14.3589078453743113 46.4643099851054160 2.0913761083146447
4965 2 4.0 14.0122442017742266 48.0665275707987121 0.0000000000000000
4966 2 4.0 16.3476182354032638 48.0665275707987121 2.1933204937043911
4967 2 4.0 14.0122442017742266 44.8620923994121270 0.0000000000000000
4968 2 4.0 16.3476182354032638 44.8620923994121270 2.1933204937043911
4969 3 -2.0 16.1892319978116177 46.4643099851054160 2.6971674024993644
4970 3 -2.0 16.5060044729949098 49.6687451564920011 1.6894735849094176
4971 3 -2.0 14.1706304393658709 49.6687451564920011 0.5038469087949736
4972 3 -2.0 18.5246060314406549 46.4643099851054160 3.8827940786138089
4973 3 -2.0 14.9171589870197270 48.4331806019378206 3.0031660760543750
4974 3 -2.0 17.7780774837867988 47.6998745396595965 1.3834749113544080
4975 3 -2.0 15.4427034501577616 47.6998745396595965 0.8098455823499836
4976 3 -2.0 17.2525330206487659 48.4331806019378206 3.5767954050587982
4977 3 -2.0 17.7780774837867988 45.2287454305512426 1.3834749113544080
4978 3 -2.0 14.9171589870197270 50.9043097110461744 3.0031660760543750
4979 3 -2.0 17.2525330206487659 50.9043097110461744 3.5767954050587982
4980 3 -2.0 15.4427034501577616 45.2287454305512426 0.8098455823499836
4981 1 2.0 16.6942818790033485 46.4643099851054160 4.4885853727985285
4982 1 2.0 16.0009545918031755 49.6687451564920011 8.6713375894278162
4983 1 2.0 18.3363286254322126 49.6687451564920011 6.6819058665029205
4984 1 2.0 14.3589078453743113 46.4643099851054160 6.4780170957234269
4985 2 4.0 14.0122442017742266 48.0665275707987121 4.3866409874087822
4986 2 4.0 16.3476182354032638 48.0665275707987121 6.5799614811131732
4987 2 4.0 14.0122442017742266 44.8620923994121270 4.3866409874087822
4988 2 4.0 16.3476182354032638 44.8620923994121270 6.5799614811131732
4989 3 -2.0 16.1892319978116177 46.4643099851054160 7.0838083899081470
4990 3 -2.0 16.5060044729949098 49.6687451564920011 6.0761145723181995
4991 3 -2.0 14.1706304393658709 49.6687451564920011 4.8904878962037559
4992 3 -2.0 18.5246060314406549 46.4643099851054160 8.2694350660225915
4993 3 -2.0 14.9171589870197270 48.4331806019378206 7.3898070634631576
4994 3 -2.0 17.7780774837867988 47.6998745396595965 5.7701158987631906
4995 3 -2.0 15.4427034501577616 47.6998745396595965 5.1964865697587657
4996 3 -2.0 17.2525330206487659 48.4331806019378206 7.9634363924675799
4997 3 -2.0 17.7780774837867988 45.2287454305512426 5.7701158987631906
4998 3 -2.0 14.9171589870197270 50.9043097110461744 7.3898070634631576
4999 3 -2.0 17.2525330206487659 50.9043097110461744 7.9634363924675799
5000 3 -2.0 15.4427034501577616 45.2287454305512426 5.1964865697587657
5001 1 2.0 16.6942818790033485 46.4643099851054160 8.8752263602073107
5002 1 2.0 16.0009545918031755 49.6687451564920011 13.0579785768365984
5003 1 2.0 18.3363286254322126 49.6687451564920011 11.0685468539117036
5004 1 2.0 14.3589078453743113 46.4643099851054160 10.8646580831322090
5005 2 4.0 14.0122442017742266 48.0665275707987121 8.7732819748175643
5006 2 4.0 16.3476182354032638 48.0665275707987121 10.9666024685219554
5007 2 4.0 14.0122442017742266 44.8620923994121270 8.7732819748175643
5008 2 4.0 16.3476182354032638 44.8620923994121270 10.9666024685219554
5009 3 -2.0 16.1892319978116177 46.4643099851054160 11.4704493773169283
5010 3 -2.0 16.5060044729949098 49.6687451564920011 10.4627555597269826
5011 3 -2.0 14.1706304393658709 49.6687451564920011 9.2771288836125372
5012 3 -2.0 18.5246060314406549 46.4643099851054160 12.6560760534313737
5013 3 -2.0 14.9171589870197270 48.4331806019378206 11.7764480508719398
5014 3 -2.0 17.7780774837867988 47.6998745396595965 10.1567568861719728
5015 3 -2.0 15.4427034501577616 47.6998745396595965 9.5831275571675469
5016 3 -2.0 17.2525330206487659 48.4331806019378206 12.3500773798763621
5017 3 -2.0 17.7780774837867988 45.2287454305512426 10.1567568861719728
5018 3 -2.0 14.9171589870197270 50.9043097110461744 11.7764480508719398
5019 3 -2.0 17.2525330206487659 50.9043097110461744 12.3500773798763621
5020 3 -2.0 15.4427034501577616 45.2287454305512426 9.5831275571675469
5021 1 2.0 16.6942818790033485 46.4643099851054160 13.2618673476160929
5022 1 2.0 16.0009545918031755 49.6687451564920011 17.4446195642453823
5023 1 2.0 18.3363286254322126 49.6687451564920011 15.4551878413204857
5024 1 2.0 14.3589078453743113 46.4643099851054160 15.2512990705409912
5025 2 4.0 14.0122442017742266 48.0665275707987121 13.1599229622263465
5026 2 4.0 16.3476182354032638 48.0665275707987121 15.3532434559307376
5027 2 4.0 14.0122442017742266 44.8620923994121270 13.1599229622263465
5028 2 4.0 16.3476182354032638 44.8620923994121270 15.3532434559307376
5029 3 -2.0 16.1892319978116177 46.4643099851054160 15.8570903647257104
5030 3 -2.0 16.5060044729949098 49.6687451564920011 14.8493965471357647
5031 3 -2.0 14.1706304393658709 49.6687451564920011 13.6637698710213193
5032 3 -2.0 18.5246060314406549 46.4643099851054160 17.0427170408401558
5033 3 -2.0 14.9171589870197270 48.4331806019378206 16.1630890382807237
5034 3 -2.0 17.7780774837867988 47.6998745396595965 14.5433978735807550
5035 3 -2.0 15.4427034501577616 47.6998745396595965 13.9697685445763291
5036 3 -2.0 17.2525330206487659 48.4331806019378206 16.7367183672851425
5037 3 -2.0 17.7780774837867988 45.2287454305512426 14.5433978735807550
5038 3 -2.0 14.9171589870197270 50.9043097110461744 16.1630890382807237
5039 3 -2.0 17.2525330206487659 50.9043097110461744 16.7367183672851425
5040 3 -2.0 15.4427034501577616 45.2287454305512426 13.9697685445763291
5041 1 2.0 16.6942818790033485 46.4643099851054160 17.6485083350248750
5042 1 2.0 16.0009545918031755 49.6687451564920011 21.8312605516541645
5043 1 2.0 18.3363286254322126 49.6687451564920011 19.8418288287292661
5044 1 2.0 14.3589078453743113 46.4643099851054160 19.6379400579497734
5045 2 4.0 14.0122442017742266 48.0665275707987121 17.5465639496351287
5046 2 4.0 16.3476182354032638 48.0665275707987121 19.7398844433395197
5047 2 4.0 14.0122442017742266 44.8620923994121270 17.5465639496351287
5048 2 4.0 16.3476182354032638 44.8620923994121270 19.7398844433395197
5049 3 -2.0 16.1892319978116177 46.4643099851054160 20.2437313521344926
5050 3 -2.0 16.5060044729949098 49.6687451564920011 19.2360375345445433
5051 3 -2.0 14.1706304393658709 49.6687451564920011 18.0504108584301051
5052 3 -2.0 18.5246060314406549 46.4643099851054160 21.4293580282489380
5053 3 -2.0 14.9171589870197270 48.4331806019378206 20.5497300256895024
5054 3 -2.0 17.7780774837867988 47.6998745396595965 18.9300388609895371
5055 3 -2.0 15.4427034501577616 47.6998745396595965 18.3564095319851113
5056 3 -2.0 17.2525330206487659 48.4331806019378206 21.1233593546939282
5057 3 -2.0 17.7780774837867988 45.2287454305512426 18.9300388609895371
5058 3 -2.0 14.9171589870197270 50.9043097110461744 20.5497300256895024
5059 3 -2.0 17.2525330206487659 50.9043097110461744 21.1233593546939282
5060 3 -2.0 15.4427034501577616 45.2287454305512426 18.3564095319851113
5061 1 2.0 16.6942818790033485 46.4643099851054160 22.0351493224336572
5062 1 2.0 16.0009545918031755 49.6687451564920011 26.2179015390629466
5063 1 2.0 18.3363286254322126 49.6687451564920011 24.2284698161380483
5064 1 2.0 14.3589078453743113 46.4643099851054160 24.0245810453585555
5065 2 4.0 14.0122442017742266 48.0665275707987121 21.9332049370439108
5066 2 4.0 16.3476182354032638 48.0665275707987121 24.1265254307483019
5067 2 4.0 14.0122442017742266 44.8620923994121270 21.9332049370439108
5068 2 4.0 16.3476182354032638 44.8620923994121270 24.1265254307483019
5069 3 -2.0 16.1892319978116177 46.4643099851054160 24.6303723395432748
5070 3 -2.0 16.5060044729949098 49.6687451564920011 23.6226785219533255
5071 3 -2.0 14.1706304393658709 49.6687451564920011 22.4370518458388872
5072 3 -2.0 18.5246060314406549 46.4643099851054160 25.8159990156577202
5073 3 -2.0 14.9171589870197270 48.4331806019378206 24.9363710130982845
5074 3 -2.0 17.7780774837867988 47.6998745396595965 23.3166798483983193
5075 3 -2.0 15.4427034501577616 47.6998745396595965 22.7430505193938934
5076 3 -2.0 17.2525330206487659 48.4331806019378206 25.5100003421027104
5077 3 -2.0 17.7780774837867988 45.2287454305512426 23.3166798483983193
5078 3 -2.0 14.9171589870197270 50.9043097110461744 24.9363710130982845
5079 3 -2.0 17.2525330206487659 50.9043097110461744 25.5100003421027104
5080 3 -2.0 15.4427034501577616 45.2287454305512426 22.7430505193938934
5081 1 2.0 16.6942818790033485 46.4643099851054160 26.4217903098424394
5082 1 2.0 16.0009545918031755 49.6687451564920011 30.6045425264717288
5083 1 2.0 18.3363286254322126 49.6687451564920011 28.6151108035468305
5084 1 2.0 14.3589078453743113 46.4643099851054160 28.4112220327673377
5085 2 4.0 14.0122442017742266 48.0665275707987121 26.3198459244526930
5086 2 4.0 16.3476182354032638 48.0665275707987121 28.5131664181570841
5087 2 4.0 14.0122442017742266 44.8620923994121270 26.3198459244526930
5088 2 4.0 16.3476182354032638 44.8620923994121270 28.5131664181570841
5089 3 -2.0 16.1892319978116177 46.4643099851054160 29.0170133269520569
5090 3 -2.0 16.5060044729949098 49.6687451564920011 28.0093195093621077
5091 3 -2.0 14.1706304393658709 49.6687451564920011 26.8236928332476694
5092 3 -2.0 18.5246060314406549 46.4643099851054160 30.2026400030665023
5093 3 -2.0 14.9171589870197270 48.4331806019378206 29.3230120005070667
5094 3 -2.0 17.7780774837867988 47.6998745396595965 27.7033208358071015
5095 3 -2.0 15.4427034501577616 47.6998745396595965 27.1296915068026756
5096 3 -2.0 17.2525330206487659 48.4331806019378206 29.8966413295114926
5097 3 -2.0 17.7780774837867988 45.2287454305512426 27.7033208358071015
5098 3 -2.0 14.9171589870197270 50.9043097110461744 29.3230120005070667
5099 3 -2.0 17.2525330206487659 50.9043097110461744 29.8966413295114926
5100 3 -2.0 15.4427034501577616 45.2287454305512426 27.1296915068026756
5101 1 2.0 16.6942818790033485 46.4643099851054160 30.8084312972512215
5102 1 2.0 16.0009545918031755 49.6687451564920011 34.9911835138805074
5103 1 2.0 18.3363286254322126 49.6687451564920011 33.0017517909556162
5104 1 2.0 14.3589078453743113 46.4643099851054160 32.7978630201761163
5105 2 4.0 14.0122442017742266 48.0665275707987121 30.7064869118614752
5106 2 4.0 16.3476182354032638 48.0665275707987121 32.8998074055658662
5107 2 4.0 14.0122442017742266 44.8620923994121270 30.7064869118614752
5108 2 4.0 16.3476182354032638 44.8620923994121270 32.8998074055658662
5109 3 -2.0 16.1892319978116177 46.4643099851054160 33.4036543143608355
5110 3 -2.0 16.5060044729949098 49.6687451564920011 32.3959604967708898
5111 3 -2.0 14.1706304393658709 49.6687451564920011 31.2103338206564516
5112 3 -2.0 18.5246060314406549 46.4643099851054160 34.5892809904752880
5113 3 -2.0 14.9171589870197270 48.4331806019378206 33.7096529879158524
5114 3 -2.0 17.7780774837867988 47.6998745396595965 32.0899618232158801
5115 3 -2.0 15.4427034501577616 47.6998745396595965 31.5163324942114578
5116 3 -2.0 17.2525330206487659 48.4331806019378206 34.2832823169202712
5117 3 -2.0 17.7780774837867988 45.2287454305512426 32.0899618232158801
5118 3 -2.0 14.9171589870197270 50.9043097110461744 33.7096529879158524
5119 3 -2.0 17.2525330206487659 50.9043097110461744 34.2832823169202712
5120 3 -2.0 15.4427034501577616 45.2287454305512426 31.5163324942114578
5121 1 2.0 21.3650299462614264 1.6022175856932903 0.1019443853897463
5122 1 2.0 20.6717026590612498 4.8066527570798705 4.2846966020190349
5123 1 2.0 23.0070766926902905 4.8066527570798705 2.2952648790941383
5124 1 2.0 19.0296559126323892 1.6022175856932903 2.0913761083146447
5125 2 4.0 18.6829922690323009 3.2044351713865806 0.0000000000000000
5126 2 4.0 21.0183663026613381 3.2044351713865806 2.1933204937043911
5127 2 4.0 18.6829922690323009 0.0000000000000000 0.0000000000000000
5128 2 4.0 21.0183663026613381 0.0000000000000000 2.1933204937043911
5129 3 -2.0 20.8599800650696920 1.6022175856932903 2.6971674024993644
5130 3 -2.0 21.1767525402529841 4.8066527570798705 1.6894735849094176
5131 3 -2.0 18.8413785066239470 4.8066527570798705 0.5038469087949736
5132 3 -2.0 23.1953540986987328 1.6022175856932903 3.8827940786138089
5133 3 -2.0 19.5879070542778031 3.5710882025256927 3.0031660760543750
5134 3 -2.0 22.4488255510448731 2.8377821402474677 1.3834749113544080
5135 3 -2.0 20.1134515174158359 2.8377821402474677 0.8098455823499836
5136 3 -2.0 21.9232810879068403 3.5710882025256927 3.5767954050587982
5137 3 -2.0 22.4488255510448731 0.3666530311391118 1.3834749113544080
5138 3 -2.0 19.5879070542778031 6.0422173116340492 3.0031660760543750
5139 3 -2.0 21.9232810879068403 6.0422173116340492 3.5767954050587982
5140 3 -2.0 20.1134515174158359 0.3666530311391118 0.8098455823499836
5141 1 2.0 21.3650299462614264 1.6022175856932903 4.4885853727985285
5142 1 2.0 20.6717026590612498 4.8066527570798705 8.6713375894278162
5143 1 2.0 23.0070766926902905 4.8066527570798705 6.6819058665029205
5144 1 2.0 19.0296559126323892 1.6022175856932903 6.4780170957234269
5145 2 4.0 18.6829922690323009 3.2044351713865806 4.3866409874087822
5146 2 4.0 21.0183663026613381 3.2044351713865806 6.5799614811131732
5147 2 4.0 18.6829922690323009 0.0000000000000000 4.3866409874087822
5148 2 4.0 21.0183663026613381 0.0000000000000000 6.5799614811131732
5149 3 -2.0 20.8599800650696920 1.6022175856932903 7.0838083899081470
5150 3 -2.0 21.1767525402529841 4.8066527570798705 6.0761145723181995
5151 3 -2.0 18.8413785066239470 4.8066527570798705 4.8904878962037559
5152 3 -2.0 23.1953540986987328 1.6022175856932903 8.2694350660225915
5153 3 -2.0 19.5879070542778031 3.5710882025256927 7.3898070634631576
5154 3 -2.0 22.4488255510448731 2.8377821402474677 5.7701158987631906
5155 3 -2.0 20.1134515174158359 2.8377821402474677 5.1964865697587657
5156 3 -2.0 21.9232810879068403 3.5710882025256927 7.9634363924675799
5157 3 -2.0 22.4488255510448731 0.3666530311391118 5.7701158987631906
5158 3 -2.0 19.5879070542778031 6.0422173116340492 7.3898070634631576
5159 3 -2.0 21.9232810879068403 6.0422173116340492 7.9634363924675799
5160 3 -2.0 20.1134515174158359 0.3666530311391118 5.1964865697587657
5161 1 2.0 21.3650299462614264 1.6022175856932903 8.8752263602073107
5162 1 2.0 20.6717026590612498 4.8066527570798705 13.0579785768365984
5163 1 2.0 23.0070766926902905 4.8066527570798705 11.0685468539117036
5164 1 2.0 19.0296559126323892 1.6022175856932903 10.8646580831322090
5165 2 4.0 18.6829922690323009 3.2044351713865806 8.7732819748175643
5166 2 4.0 21.0183663026613381 3.2044351713865806 10.9666024685219554
5167 2 4.0 18.6829922690323009 0.0000000000000000 8.7732819748175643
5168 2 4.0 21.0183663026613381 0.0000000000000000 10.9666024685219554
5169 3 -2.0 20.8599800650696920 1.6022175856932903 11.4704493773169283
5170 3 -2.0 21.1767525402529841 4.8066527570798705 10.4627555597269826
5171 3 -2.0 18.8413785066239470 4.8066527570798705 9.2771288836125372
5172 3 -2.0 23.1953540986987328 1.6022175856932903 12.6560760534313737
5173 3 -2.0 19.5879070542778031 3.5710882025256927 11.7764480508719398
5174 3 -2.0 22.4488255510448731 2.8377821402474677 10.1567568861719728
5175 3 -2.0 20.1134515174158359 2.8377821402474677 9.5831275571675469
5176 3 -2.0 21.9232810879068403 3.5710882025256927 12.3500773798763621
5177 3 -2.0 22.4488255510448731 0.3666530311391118 10.1567568861719728
5178 3 -2.0 19.5879070542778031 6.0422173116340492 11.7764480508719398
5179 3 -2.0 21.9232810879068403 6.0422173116340492 12.3500773798763621
5180 3 -2.0 20.1134515174158359 0.3666530311391118 9.5831275571675469
5181 1 2.0 21.3650299462614264 1.6022175856932903 13.2618673476160929
5182 1 2.0 20.6717026590612498 4.8066527570798705 17.4446195642453823
5183 1 2.0 23.0070766926902905 4.8066527570798705 15.4551878413204857
5184 1 2.0 19.0296559126323892 1.6022175856932903 15.2512990705409912
5185 2 4.0 18.6829922690323009 3.2044351713865806 13.1599229622263465
5186 2 4.0 21.0183663026613381 3.2044351713865806 15.3532434559307376
5187 2 4.0 18.6829922690323009 0.0000000000000000 13.1599229622263465
5188 2 4.0 21.0183663026613381 0.0000000000000000 15.3532434559307376
5189 3 -2.0 20.8599800650696920 1.6022175856932903 15.8570903647257104
5190 3 -2.0 21.1767525402529841 4.8066527570798705 14.8493965471357647
5191 3 -2.0 18.8413785066239470 4.8066527570798705 13.6637698710213193
5192 3 -2.0 23.1953540986987328 1.6022175856932903 17.0427170408401558
5193 3 -2.0 19.5879070542778031 3.5710882025256927 16.1630890382807237
5194 3 -2.0 22.4488255510448731 2.8377821402474677 14.5433978735807550
5195 3 -2.0 20.1134515174158359 2.8377821402474677 13.9697685445763291
5196 3 -2.0 21.9232810879068403 3.5710882025256927 16.7367183672851425
5197 3 -2.0 22.4488255510448731 0.3666530311391118 14.5433978735807550
5198 3 -2.0 19.5879070542778031 6.0422173116340492 16.1630890382807237
5199 3 -2.0 21.9232810879068403 6.0422173116340492 16.7367183672851425
5200 3 -2.0 20.1134515174158359 0.3666530311391118 13.9697685445763291
5201 1 2.0 21.3650299462614264 1.6022175856932903 17.6485083350248750
5202 1 2.0 20.6717026590612498 4.8066527570798705 21.8312605516541645
5203 1 2.0 23.0070766926902905 4.8066527570798705 19.8418288287292661
5204 1 2.0 19.0296559126323892 1.6022175856932903 19.6379400579497734
5205 2 4.0 18.6829922690323009 3.2044351713865806 17.5465639496351287
5206 2 4.0 21.0183663026613381 3.2044351713865806 19.7398844433395197
5207 2 4.0 18.6829922690323009 0.0000000000000000 17.5465639496351287
5208 2 4.0 21.0183663026613381 0.0000000000000000 19.7398844433395197
5209 3 -2.0 20.8599800650696920 1.6022175856932903 20.2437313521344926
5210 3 -2.0 21.1767525402529841 4.8066527570798705 19.2360375345445433
5211 3 -2.0 18.8413785066239470 4.8066527570798705 18.0504108584301051
5212 3 -2.0 23.1953540986987328 1.6022175856932903 21.4293580282489380
5213 3 -2.0 19.5879070542778031 3.5710882025256927 20.5497300256895024
5214 3 -2.0 22.4488255510448731 2.8377821402474677 18.9300388609895371
5215 3 -2.0 20.1134515174158359 2.8377821402474677 18.3564095319851113
5216 3 -2.0 21.9232810879068403 3.5710882025256927 21.1233593546939282
5217 3 -2.0 22.4488255510448731 0.3666530311391118 18.9300388609895371
5218 3 -2.0 19.5879070542778031 6.0422173116340492 20.5497300256895024
5219 3 -2.0 21.9232810879068403 6.0422173116340492 21.1233593546939282
5220 3 -2.0 20.1134515174158359 0.3666530311391118 18.3564095319851113
5221 1 2.0 21.3650299462614264 1.6022175856932903 22.0351493224336572
5222 1 2.0 20.6717026590612498 4.8066527570798705 26.2179015390629466
5223 1 2.0 23.0070766926902905 4.8066527570798705 24.2284698161380483
5224 1 2.0 19.0296559126323892 1.6022175856932903 24.0245810453585555
5225 2 4.0 18.6829922690323009 3.2044351713865806 21.9332049370439108
5226 2 4.0 21.0183663026613381 3.2044351713865806 24.1265254307483019
5227 2 4.0 18.6829922690323009 0.0000000000000000 21.9332049370439108
5228 2 4.0 21.0183663026613381 0.0000000000000000 24.1265254307483019
5229 3 -2.0 20.8599800650696920 1.6022175856932903 24.6303723395432748
5230 3 -2.0 21.1767525402529841 4.8066527570798705 23.6226785219533255
5231 3 -2.0 18.8413785066239470 4.8066527570798705 22.4370518458388872
5232 3 -2.0 23.1953540986987328 1.6022175856932903 25.8159990156577202
5233 3 -2.0 19.5879070542778031 3.5710882025256927 24.9363710130982845
5234 3 -2.0 22.4488255510448731 2.8377821402474677 23.3166798483983193
5235 3 -2.0 20.1134515174158359 2.8377821402474677 22.7430505193938934
5236 3 -2.0 21.9232810879068403 3.5710882025256927 25.5100003421027104
5237 3 -2.0 22.4488255510448731 0.3666530311391118 23.3166798483983193
5238 3 -2.0 19.5879070542778031 6.0422173116340492 24.9363710130982845
5239 3 -2.0 21.9232810879068403 6.0422173116340492 25.5100003421027104
5240 3 -2.0 20.1134515174158359 0.3666530311391118 22.7430505193938934
5241 1 2.0 21.3650299462614264 1.6022175856932903 26.4217903098424394
5242 1 2.0 20.6717026590612498 4.8066527570798705 30.6045425264717288
5243 1 2.0 23.0070766926902905 4.8066527570798705 28.6151108035468305
5244 1 2.0 19.0296559126323892 1.6022175856932903 28.4112220327673377
5245 2 4.0 18.6829922690323009 3.2044351713865806 26.3198459244526930
5246 2 4.0 21.0183663026613381 3.2044351713865806 28.5131664181570841
5247 2 4.0 18.6829922690323009 0.0000000000000000 26.3198459244526930
5248 2 4.0 21.0183663026613381 0.0000000000000000 28.5131664181570841
5249 3 -2.0 20.8599800650696920 1.6022175856932903 29.0170133269520569
5250 3 -2.0 21.1767525402529841 4.8066527570798705 28.0093195093621077
5251 3 -2.0 18.8413785066239470 4.8066527570798705 26.8236928332476694
5252 3 -2.0 23.1953540986987328 1.6022175856932903 30.2026400030665023
5253 3 -2.0 19.5879070542778031 3.5710882025256927 29.3230120005070667
5254 3 -2.0 22.4488255510448731 2.8377821402474677 27.7033208358071015
5255 3 -2.0 20.1134515174158359 2.8377821402474677 27.1296915068026756
5256 3 -2.0 21.9232810879068403 3.5710882025256927 29.8966413295114926
5257 3 -2.0 22.4488255510448731 0.3666530311391118 27.7033208358071015
5258 3 -2.0 19.5879070542778031 6.0422173116340492 29.3230120005070667
5259 3 -2.0 21.9232810879068403 6.0422173116340492 29.8966413295114926
5260 3 -2.0 20.1134515174158359 0.3666530311391118 27.1296915068026756
5261 1 2.0 21.3650299462614264 1.6022175856932903 30.8084312972512215
5262 1 2.0 20.6717026590612498 4.8066527570798705 34.9911835138805074
5263 1 2.0 23.0070766926902905 4.8066527570798705 33.0017517909556162
5264 1 2.0 19.0296559126323892 1.6022175856932903 32.7978630201761163
5265 2 4.0 18.6829922690323009 3.2044351713865806 30.7064869118614752
5266 2 4.0 21.0183663026613381 3.2044351713865806 32.8998074055658662
5267 2 4.0 18.6829922690323009 0.0000000000000000 30.7064869118614752
5268 2 4.0 21.0183663026613381 0.0000000000000000 32.8998074055658662
5269 3 -2.0 20.8599800650696920 1.6022175856932903 33.4036543143608355
5270 3 -2.0 21.1767525402529841 4.8066527570798705 32.3959604967708898
5271 3 -2.0 18.8413785066239470 4.8066527570798705 31.2103338206564516
5272 3 -2.0 23.1953540986987328 1.6022175856932903 34.5892809904752880
5273 3 -2.0 19.5879070542778031 3.5710882025256927 33.7096529879158524
5274 3 -2.0 22.4488255510448731 2.8377821402474677 32.0899618232158801
5275 3 -2.0 20.1134515174158359 2.8377821402474677 31.5163324942114578
5276 3 -2.0 21.9232810879068403 3.5710882025256927 34.2832823169202712
5277 3 -2.0 22.4488255510448731 0.3666530311391118 32.0899618232158801
5278 3 -2.0 19.5879070542778031 6.0422173116340492 33.7096529879158524
5279 3 -2.0 21.9232810879068403 6.0422173116340492 34.2832823169202712
5280 3 -2.0 20.1134515174158359 0.3666530311391118 31.5163324942114578
5281 1 2.0 21.3650299462614264 8.0110879284664520 0.1019443853897463
5282 1 2.0 20.6717026590612498 11.2155230998530318 4.2846966020190349
5283 1 2.0 23.0070766926902905 11.2155230998530318 2.2952648790941383
5284 1 2.0 19.0296559126323892 8.0110879284664520 2.0913761083146447
5285 2 4.0 18.6829922690323009 9.6133055141597410 0.0000000000000000
5286 2 4.0 21.0183663026613381 9.6133055141597410 2.1933204937043911
5287 2 4.0 18.6829922690323009 6.4088703427731613 0.0000000000000000
5288 2 4.0 21.0183663026613381 6.4088703427731613 2.1933204937043911
5289 3 -2.0 20.8599800650696920 8.0110879284664520 2.6971674024993644
5290 3 -2.0 21.1767525402529841 11.2155230998530318 1.6894735849094176
5291 3 -2.0 18.8413785066239470 11.2155230998530318 0.5038469087949736
5292 3 -2.0 23.1953540986987328 8.0110879284664520 3.8827940786138089
5293 3 -2.0 19.5879070542778031 9.9799585452988531 3.0031660760543750
5294 3 -2.0 22.4488255510448731 9.2466524830206289 1.3834749113544080
5295 3 -2.0 20.1134515174158359 9.2466524830206289 0.8098455823499836
5296 3 -2.0 21.9232810879068403 9.9799585452988531 3.5767954050587982
5297 3 -2.0 22.4488255510448731 6.7755233739122724 1.3834749113544080
5298 3 -2.0 19.5879070542778031 12.4510876544072104 3.0031660760543750
5299 3 -2.0 21.9232810879068403 12.4510876544072104 3.5767954050587982
5300 3 -2.0 20.1134515174158359 6.7755233739122724 0.8098455823499836
5301 1 2.0 21.3650299462614264 8.0110879284664520 4.4885853727985285
5302 1 2.0 20.6717026590612498 11.2155230998530318 8.6713375894278162
5303 1 2.0 23.0070766926902905 11.2155230998530318 6.6819058665029205
5304 1 2.0 19.0296559126323892 8.0110879284664520 6.4780170957234269
5305 2 4.0 18.6829922690323009 9.6133055141597410 4.3866409874087822
5306 2 4.0 21.0183663026613381 9.6133055141597410 6.5799614811131732
5307 2 4.0 18.6829922690323009 6.4088703427731613 4.3866409874087822
5308 2 4.0 21.0183663026613381 6.4088703427731613 6.5799614811131732
5309 3 -2.0 20.8599800650696920 8.0110879284664520 7.0838083899081470
5310 3 -2.0 21.1767525402529841 11.2155230998530318 6.0761145723181995
5311 3 -2.0 18.8413785066239470 11.2155230998530318 4.8904878962037559
5312 3 -2.0 23.1953540986987328 8.0110879284664520 8.2694350660225915
5313 3 -2.0 19.5879070542778031 9.9799585452988531 7.3898070634631576
5314 3 -2.0 22.4488255510448731 9.2466524830206289 5.7701158987631906
5315 3 -2.0 20.1134515174158359 9.2466524830206289 5.1964865697587657
5316 3 -2.0 21.9232810879068403 9.9799585452988531 7.9634363924675799
5317 3 -2.0 22.4488255510448731 6.7755233739122724 5.7701158987631906
5318 3 -2.0 19.5879070542778031 12.4510876544072104 7.3898070634631576
5319 3 -2.0 21.9232810879068403 12.4510876544072104 7.9634363924675799
5320 3 -2.0 20.1134515174158359 6.7755233739122724 5.1964865697587657
5321 1 2.0 21.3650299462614264 8.0110879284664520 8.8752263602073107
5322 1 2.0 20.6717026590612498 11.2155230998530318 13.0579785768365984
5323 1 2.0 23.0070766926902905 11.2155230998530318 11.0685468539117036
5324 1 2.0 19.0296559126323892 8.0110879284664520 10.8646580831322090
5325 2 4.0 18.6829922690323009 9.6133055141597410 8.7732819748175643
5326 2 4.0 21.0183663026613381 9.6133055141597410 10.9666024685219554
5327 2 4.0 18.6829922690323009 6.4088703427731613 8.7732819748175643
5328 2 4.0 21.0183663026613381 6.4088703427731613 10.9666024685219554
5329 3 -2.0 20.8599800650696920 8.0110879284664520 11.4704493773169283
5330 3 -2.0 21.1767525402529841 11.2155230998530318 10.4627555597269826
5331 3 -2.0 18.8413785066239470 11.2155230998530318 9.2771288836125372
5332 3 -2.0 23.1953540986987328 8.0110879284664520 12.6560760534313737
5333 3 -2.0 19.5879070542778031 9.9799585452988531 11.7764480508719398
5334 3 -2.0 22.4488255510448731 9.2466524830206289 10.1567568861719728
5335 3 -2.0 20.1134515174158359 9.2466524830206289 9.5831275571675469
5336 3 -2.0 21.9232810879068403 9.9799585452988531 12.3500773798763621
5337 3 -2.0 22.4488255510448731 6.7755233739122724 10.1567568861719728
5338 3 -2.0 19.5879070542778031 12.4510876544072104 11.7764480508719398
5339 3 -2.0 21.9232810879068403 12.4510876544072104 12.3500773798763621
5340 3 -2.0 20.1134515174158359 6.7755233739122724 9.5831275571675469
5341 1 2.0 21.3650299462614264 8.0110879284664520 13.2618673476160929
5342 1 2.0 20.6717026590612498 11.2155230998530318 17.4446195642453823
5343 1 2.0 23.0070766926902905 11.2155230998530318 15.4551878413204857
5344 1 2.0 19.0296559126323892 8.0110879284664520 15.2512990705409912
5345 2 4.0 18.6829922690323009 9.6133055141597410 13.1599229622263465
5346 2 4.0 21.0183663026613381 9.6133055141597410 15.3532434559307376
5347 2 4.0 18.6829922690323009 6.4088703427731613 13.1599229622263465
5348 2 4.0 21.0183663026613381 6.4088703427731613 15.3532434559307376
5349 3 -2.0 20.8599800650696920 8.0110879284664520 15.8570903647257104
5350 3 -2.0 21.1767525402529841 11.2155230998530318 14.8493965471357647
5351 3 -2.0 18.8413785066239470 11.2155230998530318 13.6637698710213193
5352 3 -2.0 23.1953540986987328 8.0110879284664520 17.0427170408401558
5353 3 -2.0 19.5879070542778031 9.9799585452988531 16.1630890382807237
5354 3 -2.0 22.4488255510448731 9.2466524830206289 14.5433978735807550
5355 3 -2.0 20.1134515174158359 9.2466524830206289 13.9697685445763291
5356 3 -2.0 21.9232810879068403 9.9799585452988531 16.7367183672851425
5357 3 -2.0 22.4488255510448731 6.7755233739122724 14.5433978735807550
5358 3 -2.0 19.5879070542778031 12.4510876544072104 16.1630890382807237
5359 3 -2.0 21.9232810879068403 12.4510876544072104 16.7367183672851425
5360 3 -2.0 20.1134515174158359 6.7755233739122724 13.9697685445763291
5361 1 2.0 21.3650299462614264 8.0110879284664520 17.6485083350248750
5362 1 2.0 20.6717026590612498 11.2155230998530318 21.8312605516541645
5363 1 2.0 23.0070766926902905 11.2155230998530318 19.8418288287292661
5364 1 2.0 19.0296559126323892 8.0110879284664520 19.6379400579497734
5365 2 4.0 18.6829922690323009 9.6133055141597410 17.5465639496351287
5366 2 4.0 21.0183663026613381 9.6133055141597410 19.7398844433395197
5367 2 4.0 18.6829922690323009 6.4088703427731613 17.5465639496351287
5368 2 4.0 21.0183663026613381 6.4088703427731613 19.7398844433395197
5369 3 -2.0 20.8599800650696920 8.0110879284664520 20.2437313521344926
5370 3 -2.0 21.1767525402529841 11.2155230998530318 19.2360375345445433
5371 3 -2.0 18.8413785066239470 11.2155230998530318 18.0504108584301051
5372 3 -2.0 23.1953540986987328 8.0110879284664520 21.4293580282489380
5373 3 -2.0 19.5879070542778031 9.9799585452988531 20.5497300256895024
5374 3 -2.0 22.4488255510448731 9.2466524830206289 18.9300388609895371
5375 3 -2.0 20.1134515174158359 9.2466524830206289 18.3564095319851113
5376 3 -2.0 21.9232810879068403 9.9799585452988531 21.1233593546939282
5377 3 -2.0 22.4488255510448731 6.7755233739122724 18.9300388609895371
5378 3 -2.0 19.5879070542778031 12.4510876544072104 20.5497300256895024
5379 3 -2.0 21.9232810879068403 12.4510876544072104 21.1233593546939282
5380 3 -2.0 20.1134515174158359 6.7755233739122724 18.3564095319851113
5381 1 2.0 21.3650299462614264 8.0110879284664520 22.0351493224336572
5382 1 2.0 20.6717026590612498 11.2155230998530318 26.2179015390629466
5383 1 2.0 23.0070766926902905 11.2155230998530318 24.2284698161380483
5384 1 2.0 19.0296559126323892 8.0110879284664520 24.0245810453585555
5385 2 4.0 18.6829922690323009 9.6133055141597410 21.9332049370439108
5386 2 4.0 21.0183663026613381 9.6133055141597410 24.1265254307483019
5387 2 4.0 18.6829922690323009 6.4088703427731613 21.9332049370439108
5388 2 4.0 21.0183663026613381 6.4088703427731613 24.1265254307483019
5389 3 -2.0 20.8599800650696920 8.0110879284664520 24.6303723395432748
5390 3 -2.0 21.1767525402529841 11.2155230998530318 23.6226785219533255
5391 3 -2.0 18.8413785066239470 11.2155230998530318 22.4370518458388872
5392 3 -2.0 23.1953540986987328 8.0110879284664520 25.8159990156577202
5393 3 -2.0 19.5879070542778031 9.9799585452988531 24.9363710130982845
5394 3 -2.0 22.4488255510448731 9.2466524830206289 23.3166798483983193
5395 3 -2.0 20.1134515174158359 9.2466524830206289 22.7430505193938934
5396 3 -2.0 21.9232810879068403 9.9799585452988531 25.5100003421027104
5397 3 -2.0 22.4488255510448731 6.7755233739122724 23.3166798483983193
5398 3 -2.0 19.5879070542778031 12.4510876544072104 24.9363710130982845
5399 3 -2.0 21.9232810879068403 12.4510876544072104 25.5100003421027104
5400 3 -2.0 20.1134515174158359 6.7755233739122724 22.7430505193938934
5401 1 2.0 21.3650299462614264 8.0110879284664520 26.4217903098424394
5402 1 2.0 20.6717026590612498 11.2155230998530318 30.6045425264717288
5403 1 2.0 23.0070766926902905 11.2155230998530318 28.6151108035468305
5404 1 2.0 19.0296559126323892 8.0110879284664520 28.4112220327673377
5405 2 4.0 18.6829922690323009 9.6133055141597410 26.3198459244526930
5406 2 4.0 21.0183663026613381 9.6133055141597410 28.5131664181570841
5407 2 4.0 18.6829922690323009 6.4088703427731613 26.3198459244526930
5408 2 4.0 21.0183663026613381 6.4088703427731613 28.5131664181570841
5409 3 -2.0 20.8599800650696920 8.0110879284664520 29.0170133269520569
5410 3 -2.0 21.1767525402529841 11.2155230998530318 28.0093195093621077
5411 3 -2.0 18.8413785066239470 11.2155230998530318 26.8236928332476694
5412 3 -2.0 23.1953540986987328 8.0110879284664520 30.2026400030665023
5413 3 -2.0 19.5879070542778031 9.9799585452988531 29.3230120005070667
5414 3 -2.0 22.4488255510448731 9.2466524830206289 27.7033208358071015
5415 3 -2.0 20.1134515174158359 9.2466524830206289 27.1296915068026756
5416 3 -2.0 21.9232810879068403 9.9799585452988531 29.8966413295114926
5417 3 -2.0 22.4488255510448731 6.7755233739122724 27.7033208358071015
5418 3 -2.0 19.5879070542778031 12.4510876544072104 29.3230120005070667
5419 3 -2.0 21.9232810879068403 12.4510876544072104 29.8966413295114926
5420 3 -2.0 20.1134515174158359 6.7755233739122724 27.1296915068026756
5421 1 2.0 21.3650299462614264 8.0110879284664520 30.8084312972512215
5422 1 2.0 20.6717026590612498 11.2155230998530318 34.9911835138805074
5423 1 2.0 23.0070766926902905 11.2155230998530318 33.0017517909556162
5424 1 2.0 19.0296559126323892 8.0110879284664520 32.7978630201761163
5425 2 4.0 18.6829922690323009 9.6133055141597410 30.7064869118614752
5426 2 4.0 21.0183663026613381 9.6133055141597410 32.8998074055658662
5427 2 4.0 18.6829922690323009 6.4088703427731613 30.7064869118614752
5428 2 4.0 21.0183663026613381 6.4088703427731613 32.8998074055658662
5429 3 -2.0 20.8599800650696920 8.0110879284664520 33.4036543143608355
5430 3 -2.0 21.1767525402529841 11.2155230998530318 32.3959604967708898
5431 3 -2.0 18.8413785066239470 11.2155230998530318 31.2103338206564516
5432 3 -2.0 23.1953540986987328 8.0110879284664520 34.5892809904752880
5433 3 -2.0 19.5879070542778031 9.9799585452988531 33.7096529879158524
5434 3 -2.0 22.4488255510448731 9.2466524830206289 32.0899618232158801
5435 3 -2.0 20.1134515174158359 9.2466524830206289 31.5163324942114578
5436 3 -2.0 21.9232810879068403 9.9799585452988531 34.2832823169202712
5437 3 -2.0 22.4488255510448731 6.7755233739122724 32.0899618232158801
5438 3 -2.0 19.5879070542778031 12.4510876544072104 33.7096529879158524
5439 3 -2.0 21.9232810879068403 12.4510876544072104 34.2832823169202712
5440 3 -2.0 20.1134515174158359 6.7755233739122724 31.5163324942114578
5441 1 2.0 21.3650299462614264 14.4199582712396133 0.1019443853897463
5442 1 2.0 20.6717026590612498 17.6243934426261930 4.2846966020190349
5443 1 2.0 23.0070766926902905 17.6243934426261930 2.2952648790941383
5444 1 2.0 19.0296559126323892 14.4199582712396133 2.0913761083146447
5445 2 4.0 18.6829922690323009 16.0221758569329040 0.0000000000000000
5446 2 4.0 21.0183663026613381 16.0221758569329040 2.1933204937043911
5447 2 4.0 18.6829922690323009 12.8177406855463225 0.0000000000000000
5448 2 4.0 21.0183663026613381 12.8177406855463225 2.1933204937043911
5449 3 -2.0 20.8599800650696920 14.4199582712396133 2.6971674024993644
5450 3 -2.0 21.1767525402529841 17.6243934426261930 1.6894735849094176
5451 3 -2.0 18.8413785066239470 17.6243934426261930 0.5038469087949736
5452 3 -2.0 23.1953540986987328 14.4199582712396133 3.8827940786138089
5453 3 -2.0 19.5879070542778031 16.3888288880720161 3.0031660760543750
5454 3 -2.0 22.4488255510448731 15.6555228257937884 1.3834749113544080
5455 3 -2.0 20.1134515174158359 15.6555228257937884 0.8098455823499836
5456 3 -2.0 21.9232810879068403 16.3888288880720161 3.5767954050587982
5457 3 -2.0 22.4488255510448731 13.1843937166854346 1.3834749113544080
5458 3 -2.0 19.5879070542778031 18.8599579971803735 3.0031660760543750
5459 3 -2.0 21.9232810879068403 18.8599579971803735 3.5767954050587982
5460 3 -2.0 20.1134515174158359 13.1843937166854346 0.8098455823499836
5461 1 2.0 21.3650299462614264 14.4199582712396133 4.4885853727985285
5462 1 2.0 20.6717026590612498 17.6243934426261930 8.6713375894278162
5463 1 2.0 23.0070766926902905 17.6243934426261930 6.6819058665029205
5464 1 2.0 19.0296559126323892 14.4199582712396133 6.4780170957234269
5465 2 4.0 18.6829922690323009 16.0221758569329040 4.3866409874087822
5466 2 4.0 21.0183663026613381 16.0221758569329040 6.5799614811131732
5467 2 4.0 18.6829922690323009 12.8177406855463225 4.3866409874087822
5468 2 4.0 21.0183663026613381 12.8177406855463225 6.5799614811131732
5469 3 -2.0 20.8599800650696920 14.4199582712396133 7.0838083899081470
5470 3 -2.0 21.1767525402529841 17.6243934426261930 6.0761145723181995
5471 3 -2.0 18.8413785066239470 17.6243934426261930 4.8904878962037559
5472 3 -2.0 23.1953540986987328 14.4199582712396133 8.2694350660225915
5473 3 -2.0 19.5879070542778031 16.3888288880720161 7.3898070634631576
5474 3 -2.0 22.4488255510448731 15.6555228257937884 5.7701158987631906
5475 3 -2.0 20.1134515174158359 15.6555228257937884 5.1964865697587657
5476 3 -2.0 21.9232810879068403 16.3888288880720161 7.9634363924675799
5477 3 -2.0 22.4488255510448731 13.1843937166854346 5.7701158987631906
5478 3 -2.0 19.5879070542778031 18.8599579971803735 7.3898070634631576
5479 3 -2.0 21.9232810879068403 18.8599579971803735 7.9634363924675799
5480 3 -2.0 20.1134515174158359 13.1843937166854346 5.1964865697587657
5481 1 2.0 21.3650299462614264 14.4199582712396133 8.8752263602073107
5482 1 2.0 20.6717026590612498 17.6243934426261930 13.0579785768365984
5483 1 2.0 23.0070766926902905 17.6243934426261930 11.0685468539117036
5484 1 2.0 19.0296559126323892 14.4199582712396133 10.8646580831322090
5485 2 4.0 18.6829922690323009 16.0221758569329040 8.7732819748175643
5486 2 4.0 21.0183663026613381 16.0221758569329040 10.9666024685219554
5487 2 4.0 18.6829922690323009 12.8177406855463225 8.7732819748175643
5488 2 4.0 21.0183663026613381 12.8177406855463225 10.9666024685219554
5489 3 -2.0 20.8599800650696920 14.4199582712396133 11.4704493773169283
5490 3 -2.0 21.1767525402529841 17.6243934426261930 10.4627555597269826
5491 3 -2.0 18.8413785066239470 17.6243934426261930 9.2771288836125372
5492 3 -2.0 23.1953540986987328 14.4199582712396133 12.6560760534313737
5493 3 -2.0 19.5879070542778031 16.3888288880720161 11.7764480508719398
5494 3 -2.0 22.4488255510448731 15.6555228257937884 10.1567568861719728
5495 3 -2.0 20.1134515174158359 15.6555228257937884 9.5831275571675469
5496 3 -2.0 21.9232810879068403 16.3888288880720161 12.3500773798763621
5497 3 -2.0 22.4488255510448731 13.1843937166854346 10.1567568861719728
5498 3 -2.0 19.5879070542778031 18.8599579971803735 11.7764480508719398
5499 3 -2.0 21.9232810879068403 18.8599579971803735 12.3500773798763621
5500 3 -2.0 20.1134515174158359 13.1843937166854346 9.5831275571675469
5501 1 2.0 21.3650299462614264 14.4199582712396133 13.2618673476160929
5502 1 2.0 20.6717026590612498 17.6243934426261930 17.4446195642453823
5503 1 2.0 23.0070766926902905 17.6243934426261930 15.4551878413204857
5504 1 2.0 19.0296559126323892 14.4199582712396133 15.2512990705409912
5505 2 4.0 18.6829922690323009 16.0221758569329040 13.1599229622263465
5506 2 4.0 21.0183663026613381 16.0221758569329040 15.3532434559307376
5507 2 4.0 18.6829922690323009 12.8177406855463225 13.1599229622263465
5508 2 4.0 21.0183663026613381 12.8177406855463225 15.3532434559307376
5509 3 -2.0 20.8599800650696920 14.4199582712396133 15.8570903647257104
5510 3 -2.0 21.1767525402529841 17.6243934426261930 14.8493965471357647
5511 3 -2.0 18.8413785066239470 17.6243934426261930 13.6637698710213193
5512 3 -2.0 23.1953540986987328 14.4199582712396133 17.0427170408401558
5513 3 -2.0 19.5879070542778031 16.3888288880720161 16.1630890382807237
5514 3 -2.0 22.4488255510448731 15.6555228257937884 14.5433978735807550
5515 3 -2.0 20.1134515174158359 15.6555228257937884 13.9697685445763291
5516 3 -2.0 21.9232810879068403 16.3888288880720161 16.7367183672851425
5517 3 -2.0 22.4488255510448731 13.1843937166854346 14.5433978735807550
5518 3 -2.0 19.5879070542778031 18.8599579971803735 16.1630890382807237
5519 3 -2.0 21.9232810879068403 18.8599579971803735 16.7367183672851425
5520 3 -2.0 20.1134515174158359 13.1843937166854346 13.9697685445763291
5521 1 2.0 21.3650299462614264 14.4199582712396133 17.6485083350248750
5522 1 2.0 20.6717026590612498 17.6243934426261930 21.8312605516541645
5523 1 2.0 23.0070766926902905 17.6243934426261930 19.8418288287292661
5524 1 2.0 19.0296559126323892 14.4199582712396133 19.6379400579497734
5525 2 4.0 18.6829922690323009 16.0221758569329040 17.5465639496351287
5526 2 4.0 21.0183663026613381 16.0221758569329040 19.7398844433395197
5527 2 4.0 18.6829922690323009 12.8177406855463225 17.5465639496351287
5528 2 4.0 21.0183663026613381 12.8177406855463225 19.7398844433395197
5529 3 -2.0 20.8599800650696920 14.4199582712396133 20.2437313521344926
5530 3 -2.0 21.1767525402529841 17.6243934426261930 19.2360375345445433
5531 3 -2.0 18.8413785066239470 17.6243934426261930 18.0504108584301051
5532 3 -2.0 23.1953540986987328 14.4199582712396133 21.4293580282489380
5533 3 -2.0 19.5879070542778031 16.3888288880720161 20.5497300256895024
5534 3 -2.0 22.4488255510448731 15.6555228257937884 18.9300388609895371
5535 3 -2.0 20.1134515174158359 15.6555228257937884 18.3564095319851113
5536 3 -2.0 21.9232810879068403 16.3888288880720161 21.1233593546939282
5537 3 -2.0 22.4488255510448731 13.1843937166854346 18.9300388609895371
5538 3 -2.0 19.5879070542778031 18.8599579971803735 20.5497300256895024
5539 3 -2.0 21.9232810879068403 18.8599579971803735 21.1233593546939282
5540 3 -2.0 20.1134515174158359 13.1843937166854346 18.3564095319851113
5541 1 2.0 21.3650299462614264 14.4199582712396133 22.0351493224336572
5542 1 2.0 20.6717026590612498 17.6243934426261930 26.2179015390629466
5543 1 2.0 23.0070766926902905 17.6243934426261930 24.2284698161380483
5544 1 2.0 19.0296559126323892 14.4199582712396133 24.0245810453585555
5545 2 4.0 18.6829922690323009 16.0221758569329040 21.9332049370439108
5546 2 4.0 21.0183663026613381 16.0221758569329040 24.1265254307483019
5547 2 4.0 18.6829922690323009 12.8177406855463225 21.9332049370439108
5548 2 4.0 21.0183663026613381 12.8177406855463225 24.1265254307483019
5549 3 -2.0 20.8599800650696920 14.4199582712396133 24.6303723395432748
5550 3 -2.0 21.1767525402529841 17.6243934426261930 23.6226785219533255
5551 3 -2.0 18.8413785066239470 17.6243934426261930 22.4370518458388872
5552 3 -2.0 23.1953540986987328 14.4199582712396133 25.8159990156577202
5553 3 -2.0 19.5879070542778031 16.3888288880720161 24.9363710130982845
5554 3 -2.0 22.4488255510448731 15.6555228257937884 23.3166798483983193
5555 3 -2.0 20.1134515174158359 15.6555228257937884 22.7430505193938934
5556 3 -2.0 21.9232810879068403 16.3888288880720161 25.5100003421027104
5557 3 -2.0 22.4488255510448731 13.1843937166854346 23.3166798483983193
5558 3 -2.0 19.5879070542778031 18.8599579971803735 24.9363710130982845
5559 3 -2.0 21.9232810879068403 18.8599579971803735 25.5100003421027104
5560 3 -2.0 20.1134515174158359 13.1843937166854346 22.7430505193938934
5561 1 2.0 21.3650299462614264 14.4199582712396133 26.4217903098424394
5562 1 2.0 20.6717026590612498 17.6243934426261930 30.6045425264717288
5563 1 2.0 23.0070766926902905 17.6243934426261930 28.6151108035468305
5564 1 2.0 19.0296559126323892 14.4199582712396133 28.4112220327673377
5565 2 4.0 18.6829922690323009 16.0221758569329040 26.3198459244526930
5566 2 4.0 21.0183663026613381 16.0221758569329040 28.5131664181570841
5567 2 4.0 18.6829922690323009 12.8177406855463225 26.3198459244526930
5568 2 4.0 21.0183663026613381 12.8177406855463225 28.5131664181570841
5569 3 -2.0 20.8599800650696920 14.4199582712396133 29.0170133269520569
5570 3 -2.0 21.1767525402529841 17.6243934426261930 28.0093195093621077
5571 3 -2.0 18.8413785066239470 17.6243934426261930 26.8236928332476694
5572 3 -2.0 23.1953540986987328 14.4199582712396133 30.2026400030665023
5573 3 -2.0 19.5879070542778031 16.3888288880720161 29.3230120005070667
5574 3 -2.0 22.4488255510448731 15.6555228257937884 27.7033208358071015
5575 3 -2.0 20.1134515174158359 15.6555228257937884 27.1296915068026756
5576 3 -2.0 21.9232810879068403 16.3888288880720161 29.8966413295114926
5577 3 -2.0 22.4488255510448731 13.1843937166854346 27.7033208358071015
5578 3 -2.0 19.5879070542778031 18.8599579971803735 29.3230120005070667
5579 3 -2.0 21.9232810879068403 18.8599579971803735 29.8966413295114926
5580 3 -2.0 20.1134515174158359 13.1843937166854346 27.1296915068026756
5581 1 2.0 21.3650299462614264 14.4199582712396133 30.8084312972512215
5582 1 2.0 20.6717026590612498 17.6243934426261930 34.9911835138805074
5583 1 2.0 23.0070766926902905 17.6243934426261930 33.0017517909556162
5584 1 2.0 19.0296559126323892 14.4199582712396133 32.7978630201761163
5585 2 4.0 18.6829922690323009 16.0221758569329040 30.7064869118614752
5586 2 4.0 21.0183663026613381 16.0221758569329040 32.8998074055658662
5587 2 4.0 18.6829922690323009 12.8177406855463225 30.7064869118614752
5588 2 4.0 21.0183663026613381 12.8177406855463225 32.8998074055658662
5589 3 -2.0 20.8599800650696920 14.4199582712396133 33.4036543143608355
5590 3 -2.0 21.1767525402529841 17.6243934426261930 32.3959604967708898
5591 3 -2.0 18.8413785066239470 17.6243934426261930 31.2103338206564516
5592 3 -2.0 23.1953540986987328 14.4199582712396133 34.5892809904752880
5593 3 -2.0 19.5879070542778031 16.3888288880720161 33.7096529879158524
5594 3 -2.0 22.4488255510448731 15.6555228257937884 32.0899618232158801
5595 3 -2.0 20.1134515174158359 15.6555228257937884 31.5163324942114578
5596 3 -2.0 21.9232810879068403 16.3888288880720161 34.2832823169202712
5597 3 -2.0 22.4488255510448731 13.1843937166854346 32.0899618232158801
5598 3 -2.0 19.5879070542778031 18.8599579971803735 33.7096529879158524
5599 3 -2.0 21.9232810879068403 18.8599579971803735 34.2832823169202712
5600 3 -2.0 20.1134515174158359 13.1843937166854346 31.5163324942114578
5601 1 2.0 21.3650299462614264 20.8288286140127745 0.1019443853897463
5602 1 2.0 20.6717026590612498 24.0332637853993560 4.2846966020190349
5603 1 2.0 23.0070766926902905 24.0332637853993560 2.2952648790941383
5604 1 2.0 19.0296559126323892 20.8288286140127745 2.0913761083146447
5605 2 4.0 18.6829922690323009 22.4310461997060635 0.0000000000000000
5606 2 4.0 21.0183663026613381 22.4310461997060635 2.1933204937043911
5607 2 4.0 18.6829922690323009 19.2266110283194820 0.0000000000000000
5608 2 4.0 21.0183663026613381 19.2266110283194820 2.1933204937043911
5609 3 -2.0 20.8599800650696920 20.8288286140127745 2.6971674024993644
5610 3 -2.0 21.1767525402529841 24.0332637853993560 1.6894735849094176
5611 3 -2.0 18.8413785066239470 24.0332637853993560 0.5038469087949736
5612 3 -2.0 23.1953540986987328 20.8288286140127745 3.8827940786138089
5613 3 -2.0 19.5879070542778031 22.7976992308451756 3.0031660760543750
5614 3 -2.0 22.4488255510448731 22.0643931685669514 1.3834749113544080
5615 3 -2.0 20.1134515174158359 22.0643931685669514 0.8098455823499836
5616 3 -2.0 21.9232810879068403 22.7976992308451756 3.5767954050587982
5617 3 -2.0 22.4488255510448731 19.5932640594585941 1.3834749113544080
5618 3 -2.0 19.5879070542778031 25.2688283399535329 3.0031660760543750
5619 3 -2.0 21.9232810879068403 25.2688283399535329 3.5767954050587982
5620 3 -2.0 20.1134515174158359 19.5932640594585941 0.8098455823499836
5621 1 2.0 21.3650299462614264 20.8288286140127745 4.4885853727985285
5622 1 2.0 20.6717026590612498 24.0332637853993560 8.6713375894278162
5623 1 2.0 23.0070766926902905 24.0332637853993560 6.6819058665029205
5624 1 2.0 19.0296559126323892 20.8288286140127745 6.4780170957234269
5625 2 4.0 18.6829922690323009 22.4310461997060635 4.3866409874087822
5626 2 4.0 21.0183663026613381 22.4310461997060635 6.5799614811131732
5627 2 4.0 18.6829922690323009 19.2266110283194820 4.3866409874087822
5628 2 4.0 21.0183663026613381 19.2266110283194820 6.5799614811131732
5629 3 -2.0 20.8599800650696920 20.8288286140127745 7.0838083899081470
5630 3 -2.0 21.1767525402529841 24.0332637853993560 6.0761145723181995
5631 3 -2.0 18.8413785066239470 24.0332637853993560 4.8904878962037559
5632 3 -2.0 23.1953540986987328 20.8288286140127745 8.2694350660225915
5633 3 -2.0 19.5879070542778031 22.7976992308451756 7.3898070634631576
5634 3 -2.0 22.4488255510448731 22.0643931685669514 5.7701158987631906
5635 3 -2.0 20.1134515174158359 22.0643931685669514 5.1964865697587657
5636 3 -2.0 21.9232810879068403 22.7976992308451756 7.9634363924675799
5637 3 -2.0 22.4488255510448731 19.5932640594585941 5.7701158987631906
5638 3 -2.0 19.5879070542778031 25.2688283399535329 7.3898070634631576
5639 3 -2.0 21.9232810879068403 25.2688283399535329 7.9634363924675799
5640 3 -2.0 20.1134515174158359 19.5932640594585941 5.1964865697587657
5641 1 2.0 21.3650299462614264 20.8288286140127745 8.8752263602073107
5642 1 2.0 20.6717026590612498 24.0332637853993560 13.0579785768365984
5643 1 2.0 23.0070766926902905 24.0332637853993560 11.0685468539117036
5644 1 2.0 19.0296559126323892 20.8288286140127745 10.8646580831322090
5645 2 4.0 18.6829922690323009 22.4310461997060635 8.7732819748175643
5646 2 4.0 21.0183663026613381 22.4310461997060635 10.9666024685219554
5647 2 4.0 18.6829922690323009 19.2266110283194820 8.7732819748175643
5648 2 4.0 21.0183663026613381 19.2266110283194820 10.9666024685219554
5649 3 -2.0 20.8599800650696920 20.8288286140127745 11.4704493773169283
5650 3 -2.0 21.1767525402529841 24.0332637853993560 10.4627555597269826
5651 3 -2.0 18.8413785066239470 24.0332637853993560 9.2771288836125372
5652 3 -2.0 23.1953540986987328 20.8288286140127745 12.6560760534313737
5653 3 -2.0 19.5879070542778031 22.7976992308451756 11.7764480508719398
5654 3 -2.0 22.4488255510448731 22.0643931685669514 10.1567568861719728
5655 3 -2.0 20.1134515174158359 22.0643931685669514 9.5831275571675469
5656 3 -2.0 21.9232810879068403 22.7976992308451756 12.3500773798763621
5657 3 -2.0 22.4488255510448731 19.5932640594585941 10.1567568861719728
5658 3 -2.0 19.5879070542778031 25.2688283399535329 11.7764480508719398
5659 3 -2.0 21.9232810879068403 25.2688283399535329 12.3500773798763621
5660 3 -2.0 20.1134515174158359 19.5932640594585941 9.5831275571675469
5661 1 2.0 21.3650299462614264 20.8288286140127745 13.2618673476160929
5662 1 2.0 20.6717026590612498 24.0332637853993560 17.4446195642453823
5663 1 2.0 23.0070766926902905 24.0332637853993560 15.4551878413204857
5664 1 2.0 19.0296559126323892 20.8288286140127745 15.2512990705409912
5665 2 4.0 18.6829922690323009 22.4310461997060635 13.1599229622263465
5666 2 4.0 21.0183663026613381 22.4310461997060635 15.3532434559307376
5667 2 4.0 18.6829922690323009 19.2266110283194820 13.1599229622263465
5668 2 4.0 21.0183663026613381 19.2266110283194820 15.3532434559307376
5669 3 -2.0 20.8599800650696920 20.8288286140127745 15.8570903647257104
5670 3 -2.0 21.1767525402529841 24.0332637853993560 14.8493965471357647
5671 3 -2.0 18.8413785066239470 24.0332637853993560 13.6637698710213193
5672 3 -2.0 23.1953540986987328 20.8288286140127745 17.0427170408401558
5673 3 -2.0 19.5879070542778031 22.7976992308451756 16.1630890382807237
5674 3 -2.0 22.4488255510448731 22.0643931685669514 14.5433978735807550
5675 3 -2.0 20.1134515174158359 22.0643931685669514 13.9697685445763291
5676 3 -2.0 21.9232810879068403 22.7976992308451756 16.7367183672851425
5677 3 -2.0 22.4488255510448731 19.5932640594585941 14.5433978735807550
5678 3 -2.0 19.5879070542778031 25.2688283399535329 16.1630890382807237
5679 3 -2.0 21.9232810879068403 25.2688283399535329 16.7367183672851425
5680 3 -2.0 20.1134515174158359 19.5932640594585941 13.9697685445763291
5681 1 2.0 21.3650299462614264 20.8288286140127745 17.6485083350248750
5682 1 2.0 20.6717026590612498 24.0332637853993560 21.8312605516541645
5683 1 2.0 23.0070766926902905 24.0332637853993560 19.8418288287292661
5684 1 2.0 19.0296559126323892 20.8288286140127745 19.6379400579497734
5685 2 4.0 18.6829922690323009 22.4310461997060635 17.5465639496351287
5686 2 4.0 21.0183663026613381 22.4310461997060635 19.7398844433395197
5687 2 4.0 18.6829922690323009 19.2266110283194820 17.5465639496351287
5688 2 4.0 21.0183663026613381 19.2266110283194820 19.7398844433395197
5689 3 -2.0 20.8599800650696920 20.8288286140127745 20.2437313521344926
5690 3 -2.0 21.1767525402529841 24.0332637853993560 19.2360375345445433
5691 3 -2.0 18.8413785066239470 24.0332637853993560 18.0504108584301051
5692 3 -2.0 23.1953540986987328 20.8288286140127745 21.4293580282489380
5693 3 -2.0 19.5879070542778031 22.7976992308451756 20.5497300256895024
5694 3 -2.0 22.4488255510448731 22.0643931685669514 18.9300388609895371
5695 3 -2.0 20.1134515174158359 22.0643931685669514 18.3564095319851113
5696 3 -2.0 21.9232810879068403 22.7976992308451756 21.1233593546939282
5697 3 -2.0 22.4488255510448731 19.5932640594585941 18.9300388609895371
5698 3 -2.0 19.5879070542778031 25.2688283399535329 20.5497300256895024
5699 3 -2.0 21.9232810879068403 25.2688283399535329 21.1233593546939282
5700 3 -2.0 20.1134515174158359 19.5932640594585941 18.3564095319851113
5701 1 2.0 21.3650299462614264 20.8288286140127745 22.0351493224336572
5702 1 2.0 20.6717026590612498 24.0332637853993560 26.2179015390629466
5703 1 2.0 23.0070766926902905 24.0332637853993560 24.2284698161380483
5704 1 2.0 19.0296559126323892 20.8288286140127745 24.0245810453585555
5705 2 4.0 18.6829922690323009 22.4310461997060635 21.9332049370439108
5706 2 4.0 21.0183663026613381 22.4310461997060635 24.1265254307483019
5707 2 4.0 18.6829922690323009 19.2266110283194820 21.9332049370439108
5708 2 4.0 21.0183663026613381 19.2266110283194820 24.1265254307483019
5709 3 -2.0 20.8599800650696920 20.8288286140127745 24.6303723395432748
5710 3 -2.0 21.1767525402529841 24.0332637853993560 23.6226785219533255
5711 3 -2.0 18.8413785066239470 24.0332637853993560 22.4370518458388872
5712 3 -2.0 23.1953540986987328 20.8288286140127745 25.8159990156577202
5713 3 -2.0 19.5879070542778031 22.7976992308451756 24.9363710130982845
5714 3 -2.0 22.4488255510448731 22.0643931685669514 23.3166798483983193
5715 3 -2.0 20.1134515174158359 22.0643931685669514 22.7430505193938934
5716 3 -2.0 21.9232810879068403 22.7976992308451756 25.5100003421027104
5717 3 -2.0 22.4488255510448731 19.5932640594585941 23.3166798483983193
5718 3 -2.0 19.5879070542778031 25.2688283399535329 24.9363710130982845
5719 3 -2.0 21.9232810879068403 25.2688283399535329 25.5100003421027104
5720 3 -2.0 20.1134515174158359 19.5932640594585941 22.7430505193938934
5721 1 2.0 21.3650299462614264 20.8288286140127745 26.4217903098424394
5722 1 2.0 20.6717026590612498 24.0332637853993560 30.6045425264717288
5723 1 2.0 23.0070766926902905 24.0332637853993560 28.6151108035468305
5724 1 2.0 19.0296559126323892 20.8288286140127745 28.4112220327673377
5725 2 4.0 18.6829922690323009 22.4310461997060635 26.3198459244526930
5726 2 4.0 21.0183663026613381 22.4310461997060635 28.5131664181570841
5727 2 4.0 18.6829922690323009 19.2266110283194820 26.3198459244526930
5728 2 4.0 21.0183663026613381 19.2266110283194820 28.5131664181570841
5729 3 -2.0 20.8599800650696920 20.8288286140127745 29.0170133269520569
5730 3 -2.0 21.1767525402529841 24.0332637853993560 28.0093195093621077
5731 3 -2.0 18.8413785066239470 24.0332637853993560 26.8236928332476694
5732 3 -2.0 23.1953540986987328 20.8288286140127745 30.2026400030665023
5733 3 -2.0 19.5879070542778031 22.7976992308451756 29.3230120005070667
5734 3 -2.0 22.4488255510448731 22.0643931685669514 27.7033208358071015
5735 3 -2.0 20.1134515174158359 22.0643931685669514 27.1296915068026756
5736 3 -2.0 21.9232810879068403 22.7976992308451756 29.8966413295114926
5737 3 -2.0 22.4488255510448731 19.5932640594585941 27.7033208358071015
5738 3 -2.0 19.5879070542778031 25.2688283399535329 29.3230120005070667
5739 3 -2.0 21.9232810879068403 25.2688283399535329 29.8966413295114926
5740 3 -2.0 20.1134515174158359 19.5932640594585941 27.1296915068026756
5741 1 2.0 21.3650299462614264 20.8288286140127745 30.8084312972512215
5742 1 2.0 20.6717026590612498 24.0332637853993560 34.9911835138805074
5743 1 2.0 23.0070766926902905 24.0332637853993560 33.0017517909556162
5744 1 2.0 19.0296559126323892 20.8288286140127745 32.7978630201761163
5745 2 4.0 18.6829922690323009 22.4310461997060635 30.7064869118614752
5746 2 4.0 21.0183663026613381 22.4310461997060635 32.8998074055658662
5747 2 4.0 18.6829922690323009 19.2266110283194820 30.7064869118614752
5748 2 4.0 21.0183663026613381 19.2266110283194820 32.8998074055658662
5749 3 -2.0 20.8599800650696920 20.8288286140127745 33.4036543143608355
5750 3 -2.0 21.1767525402529841 24.0332637853993560 32.3959604967708898
5751 3 -2.0 18.8413785066239470 24.0332637853993560 31.2103338206564516
5752 3 -2.0 23.1953540986987328 20.8288286140127745 34.5892809904752880
5753 3 -2.0 19.5879070542778031 22.7976992308451756 33.7096529879158524
5754 3 -2.0 22.4488255510448731 22.0643931685669514 32.0899618232158801
5755 3 -2.0 20.1134515174158359 22.0643931685669514 31.5163324942114578
5756 3 -2.0 21.9232810879068403 22.7976992308451756 34.2832823169202712
5757 3 -2.0 22.4488255510448731 19.5932640594585941 32.0899618232158801
5758 3 -2.0 19.5879070542778031 25.2688283399535329 33.7096529879158524
5759 3 -2.0 21.9232810879068403 25.2688283399535329 34.2832823169202712
5760 3 -2.0 20.1134515174158359 19.5932640594585941 31.5163324942114578
5761 1 2.0 21.3650299462614264 27.2376989567859340 0.1019443853897463
5762 1 2.0 20.6717026590612498 30.4421341281725155 4.2846966020190349
5763 1 2.0 23.0070766926902905 30.4421341281725155 2.2952648790941383
5764 1 2.0 19.0296559126323892 27.2376989567859340 2.0913761083146447
5765 2 4.0 18.6829922690323009 28.8399165424792265 0.0000000000000000
5766 2 4.0 21.0183663026613381 28.8399165424792265 2.1933204937043911
5767 2 4.0 18.6829922690323009 25.6354813710926450 0.0000000000000000
5768 2 4.0 21.0183663026613381 25.6354813710926450 2.1933204937043911
5769 3 -2.0 20.8599800650696920 27.2376989567859340 2.6971674024993644
5770 3 -2.0 21.1767525402529841 30.4421341281725155 1.6894735849094176
5771 3 -2.0 18.8413785066239470 30.4421341281725155 0.5038469087949736
5772 3 -2.0 23.1953540986987328 27.2376989567859340 3.8827940786138089
5773 3 -2.0 19.5879070542778031 29.2065695736183386 3.0031660760543750
5774 3 -2.0 22.4488255510448731 28.4732635113401109 1.3834749113544080
5775 3 -2.0 20.1134515174158359 28.4732635113401109 0.8098455823499836
5776 3 -2.0 21.9232810879068403 29.2065695736183386 3.5767954050587982
5777 3 -2.0 22.4488255510448731 26.0021344022317606 1.3834749113544080
5778 3 -2.0 19.5879070542778031 31.6776986827266924 3.0031660760543750
5779 3 -2.0 21.9232810879068403 31.6776986827266924 3.5767954050587982
5780 3 -2.0 20.1134515174158359 26.0021344022317606 0.8098455823499836
5781 1 2.0 21.3650299462614264 27.2376989567859340 4.4885853727985285
5782 1 2.0 20.6717026590612498 30.4421341281725155 8.6713375894278162
5783 1 2.0 23.0070766926902905 30.4421341281725155 6.6819058665029205
5784 1 2.0 19.0296559126323892 27.2376989567859340 6.4780170957234269
5785 2 4.0 18.6829922690323009 28.8399165424792265 4.3866409874087822
5786 2 4.0 21.0183663026613381 28.8399165424792265 6.5799614811131732
5787 2 4.0 18.6829922690323009 25.6354813710926450 4.3866409874087822
5788 2 4.0 21.0183663026613381 25.6354813710926450 6.5799614811131732
5789 3 -2.0 20.8599800650696920 27.2376989567859340 7.0838083899081470
5790 3 -2.0 21.1767525402529841 30.4421341281725155 6.0761145723181995
5791 3 -2.0 18.8413785066239470 30.4421341281725155 4.8904878962037559
5792 3 -2.0 23.1953540986987328 27.2376989567859340 8.2694350660225915
5793 3 -2.0 19.5879070542778031 29.2065695736183386 7.3898070634631576
5794 3 -2.0 22.4488255510448731 28.4732635113401109 5.7701158987631906
5795 3 -2.0 20.1134515174158359 28.4732635113401109 5.1964865697587657
5796 3 -2.0 21.9232810879068403 29.2065695736183386 7.9634363924675799
5797 3 -2.0 22.4488255510448731 26.0021344022317606 5.7701158987631906
5798 3 -2.0 19.5879070542778031 31.6776986827266924 7.3898070634631576
5799 3 -2.0 21.9232810879068403 31.6776986827266924 7.9634363924675799
5800 3 -2.0 20.1134515174158359 26.0021344022317606 5.1964865697587657
5801 1 2.0 21.3650299462614264 27.2376989567859340 8.8752263602073107
5802 1 2.0 20.6717026590612498 30.4421341281725155 13.0579785768365984
5803 1 2.0 23.0070766926902905 30.4421341281725155 11.0685468539117036
5804 1 2.0 19.0296559126323892 27.2376989567859340 10.8646580831322090
5805 2 4.0 18.6829922690323009 28.8399165424792265 8.7732819748175643
5806 2 4.0 21.0183663026613381 28.8399165424792265 10.9666024685219554
5807 2 4.0 18.6829922690323009 25.6354813710926450 8.7732819748175643
5808 2 4.0 21.0183663026613381 25.6354813710926450 10.9666024685219554
5809 3 -2.0 20.8599800650696920 27.2376989567859340 11.4704493773169283
5810 3 -2.0 21.1767525402529841 30.4421341281725155 10.4627555597269826
5811 3 -2.0 18.8413785066239470 30.4421341281725155 9.2771288836125372
5812 3 -2.0 23.1953540986987328 27.2376989567859340 12.6560760534313737
5813 3 -2.0 19.5879070542778031 29.2065695736183386 11.7764480508719398
5814 3 -2.0 22.4488255510448731 28.4732635113401109 10.1567568861719728
5815 3 -2.0 20.1134515174158359 28.4732635113401109 9.5831275571675469
5816 3 -2.0 21.9232810879068403 29.2065695736183386 12.3500773798763621
5817 3 -2.0 22.4488255510448731 26.0021344022317606 10.1567568861719728
5818 3 -2.0 19.5879070542778031 31.6776986827266924 11.7764480508719398
5819 3 -2.0 21.9232810879068403 31.6776986827266924 12.3500773798763621
5820 3 -2.0 20.1134515174158359 26.0021344022317606 9.5831275571675469
5821 1 2.0 21.3650299462614264 27.2376989567859340 13.2618673476160929
5822 1 2.0 20.6717026590612498 30.4421341281725155 17.4446195642453823
5823 1 2.0 23.0070766926902905 30.4421341281725155 15.4551878413204857
5824 1 2.0 19.0296559126323892 27.2376989567859340 15.2512990705409912
5825 2 4.0 18.6829922690323009 28.8399165424792265 13.1599229622263465
5826 2 4.0 21.0183663026613381 28.8399165424792265 15.3532434559307376
5827 2 4.0 18.6829922690323009 25.6354813710926450 13.1599229622263465
5828 2 4.0 21.0183663026613381 25.6354813710926450 15.3532434559307376
5829 3 -2.0 20.8599800650696920 27.2376989567859340 15.8570903647257104
5830 3 -2.0 21.1767525402529841 30.4421341281725155 14.8493965471357647
5831 3 -2.0 18.8413785066239470 30.4421341281725155 13.6637698710213193
5832 3 -2.0 23.1953540986987328 27.2376989567859340 17.0427170408401558
5833 3 -2.0 19.5879070542778031 29.2065695736183386 16.1630890382807237
5834 3 -2.0 22.4488255510448731 28.4732635113401109 14.5433978735807550
5835 3 -2.0 20.1134515174158359 28.4732635113401109 13.9697685445763291
5836 3 -2.0 21.9232810879068403 29.2065695736183386 16.7367183672851425
5837 3 -2.0 22.4488255510448731 26.0021344022317606 14.5433978735807550
5838 3 -2.0 19.5879070542778031 31.6776986827266924 16.1630890382807237
5839 3 -2.0 21.9232810879068403 31.6776986827266924 16.7367183672851425
5840 3 -2.0 20.1134515174158359 26.0021344022317606 13.9697685445763291
5841 1 2.0 21.3650299462614264 27.2376989567859340 17.6485083350248750
5842 1 2.0 20.6717026590612498 30.4421341281725155 21.8312605516541645
5843 1 2.0 23.0070766926902905 30.4421341281725155 19.8418288287292661
5844 1 2.0 19.0296559126323892 27.2376989567859340 19.6379400579497734
5845 2 4.0 18.6829922690323009 28.8399165424792265 17.5465639496351287
5846 2 4.0 21.0183663026613381 28.8399165424792265 19.7398844433395197
5847 2 4.0 18.6829922690323009 25.6354813710926450 17.5465639496351287
5848 2 4.0 21.0183663026613381 25.6354813710926450 19.7398844433395197
5849 3 -2.0 20.8599800650696920 27.2376989567859340 20.2437313521344926
5850 3 -2.0 21.1767525402529841 30.4421341281725155 19.2360375345445433
5851 3 -2.0 18.8413785066239470 30.4421341281725155 18.0504108584301051
5852 3 -2.0 23.1953540986987328 27.2376989567859340 21.4293580282489380
5853 3 -2.0 19.5879070542778031 29.2065695736183386 20.5497300256895024
5854 3 -2.0 22.4488255510448731 28.4732635113401109 18.9300388609895371
5855 3 -2.0 20.1134515174158359 28.4732635113401109 18.3564095319851113
5856 3 -2.0 21.9232810879068403 29.2065695736183386 21.1233593546939282
5857 3 -2.0 22.4488255510448731 26.0021344022317606 18.9300388609895371
5858 3 -2.0 19.5879070542778031 31.6776986827266924 20.5497300256895024
5859 3 -2.0 21.9232810879068403 31.6776986827266924 21.1233593546939282
5860 3 -2.0 20.1134515174158359 26.0021344022317606 18.3564095319851113
5861 1 2.0 21.3650299462614264 27.2376989567859340 22.0351493224336572
5862 1 2.0 20.6717026590612498 30.4421341281725155 26.2179015390629466
5863 1 2.0 23.0070766926902905 30.4421341281725155 24.2284698161380483
5864 1 2.0 19.0296559126323892 27.2376989567859340 24.0245810453585555
5865 2 4.0 18.6829922690323009 28.8399165424792265 21.9332049370439108
5866 2 4.0 21.0183663026613381 28.8399165424792265 24.1265254307483019
5867 2 4.0 18.6829922690323009 25.6354813710926450 21.9332049370439108
5868 2 4.0 21.0183663026613381 25.6354813710926450 24.1265254307483019
5869 3 -2.0 20.8599800650696920 27.2376989567859340 24.6303723395432748
5870 3 -2.0 21.1767525402529841 30.4421341281725155 23.6226785219533255
5871 3 -2.0 18.8413785066239470 30.4421341281725155 22.4370518458388872
5872 3 -2.0 23.1953540986987328 27.2376989567859340 25.8159990156577202
5873 3 -2.0 19.5879070542778031 29.2065695736183386 24.9363710130982845
5874 3 -2.0 22.4488255510448731 28.4732635113401109 23.3166798483983193
5875 3 -2.0 20.1134515174158359 28.4732635113401109 22.7430505193938934
5876 3 -2.0 21.9232810879068403 29.2065695736183386 25.5100003421027104
5877 3 -2.0 22.4488255510448731 26.0021344022317606 23.3166798483983193
5878 3 -2.0 19.5879070542778031 31.6776986827266924 24.9363710130982845
5879 3 -2.0 21.9232810879068403 31.6776986827266924 25.5100003421027104
5880 3 -2.0 20.1134515174158359 26.0021344022317606 22.7430505193938934
5881 1 2.0 21.3650299462614264 27.2376989567859340 26.4217903098424394
5882 1 2.0 20.6717026590612498 30.4421341281725155 30.6045425264717288
5883 1 2.0 23.0070766926902905 30.4421341281725155 28.6151108035468305
5884 1 2.0 19.0296559126323892 27.2376989567859340 28.4112220327673377
5885 2 4.0 18.6829922690323009 28.8399165424792265 26.3198459244526930
5886 2 4.0 21.0183663026613381 28.8399165424792265 28.5131664181570841
5887 2 4.0 18.6829922690323009 25.6354813710926450 26.3198459244526930
5888 2 4.0 21.0183663026613381 25.6354813710926450 28.5131664181570841
5889 3 -2.0 20.8599800650696920 27.2376989567859340 29.0170133269520569
5890 3 -2.0 21.1767525402529841 30.4421341281725155 28.0093195093621077
5891 3 -2.0 18.8413785066239470 30.4421341281725155 26.8236928332476694
5892 3 -2.0 23.1953540986987328 27.2376989567859340 30.2026400030665023
5893 3 -2.0 19.5879070542778031 29.2065695736183386 29.3230120005070667
5894 3 -2.0 22.4488255510448731 28.4732635113401109 27.7033208358071015
5895 3 -2.0 20.1134515174158359 28.4732635113401109 27.1296915068026756
5896 3 -2.0 21.9232810879068403 29.2065695736183386 29.8966413295114926
5897 3 -2.0 22.4488255510448731 26.0021344022317606 27.7033208358071015
5898 3 -2.0 19.5879070542778031 31.6776986827266924 29.3230120005070667
5899 3 -2.0 21.9232810879068403 31.6776986827266924 29.8966413295114926
5900 3 -2.0 20.1134515174158359 26.0021344022317606 27.1296915068026756
5901 1 2.0 21.3650299462614264 27.2376989567859340 30.8084312972512215
5902 1 2.0 20.6717026590612498 30.4421341281725155 34.9911835138805074
5903 1 2.0 23.0070766926902905 30.4421341281725155 33.0017517909556162
5904 1 2.0 19.0296559126323892 27.2376989567859340 32.7978630201761163
5905 2 4.0 18.6829922690323009 28.8399165424792265 30.7064869118614752
5906 2 4.0 21.0183663026613381 28.8399165424792265 32.8998074055658662
5907 2 4.0 18.6829922690323009 25.6354813710926450 30.7064869118614752
5908 2 4.0 21.0183663026613381 25.6354813710926450 32.8998074055658662
5909 3 -2.0 20.8599800650696920 27.2376989567859340 33.4036543143608355
5910 3 -2.0 21.1767525402529841 30.4421341281725155 32.3959604967708898
5911 3 -2.0 18.8413785066239470 30.4421341281725155 31.2103338206564516
5912 3 -2.0 23.1953540986987328 27.2376989567859340 34.5892809904752880
5913 3 -2.0 19.5879070542778031 29.2065695736183386 33.7096529879158524
5914 3 -2.0 22.4488255510448731 28.4732635113401109 32.0899618232158801
5915 3 -2.0 20.1134515174158359 28.4732635113401109 31.5163324942114578
5916 3 -2.0 21.9232810879068403 29.2065695736183386 34.2832823169202712
5917 3 -2.0 22.4488255510448731 26.0021344022317606 32.0899618232158801
5918 3 -2.0 19.5879070542778031 31.6776986827266924 33.7096529879158524
5919 3 -2.0 21.9232810879068403 31.6776986827266924 34.2832823169202712
5920 3 -2.0 20.1134515174158359 26.0021344022317606 31.5163324942114578
5921 1 2.0 21.3650299462614264 33.6465692995590970 0.1019443853897463
5922 1 2.0 20.6717026590612498 36.8510044709456750 4.2846966020190349
5923 1 2.0 23.0070766926902905 36.8510044709456750 2.2952648790941383
5924 1 2.0 19.0296559126323892 33.6465692995590970 2.0913761083146447
5925 2 4.0 18.6829922690323009 35.2487868852523860 0.0000000000000000
5926 2 4.0 21.0183663026613381 35.2487868852523860 2.1933204937043911
5927 2 4.0 18.6829922690323009 32.0443517138658081 0.0000000000000000
5928 2 4.0 21.0183663026613381 32.0443517138658081 2.1933204937043911
5929 3 -2.0 20.8599800650696920 33.6465692995590970 2.6971674024993644
5930 3 -2.0 21.1767525402529841 36.8510044709456750 1.6894735849094176
5931 3 -2.0 18.8413785066239470 36.8510044709456750 0.5038469087949736
5932 3 -2.0 23.1953540986987328 33.6465692995590970 3.8827940786138089
5933 3 -2.0 19.5879070542778031 35.6154399163915016 3.0031660760543750
5934 3 -2.0 22.4488255510448731 34.8821338541132704 1.3834749113544080
5935 3 -2.0 20.1134515174158359 34.8821338541132704 0.8098455823499836
5936 3 -2.0 21.9232810879068403 35.6154399163915016 3.5767954050587982
5937 3 -2.0 22.4488255510448731 32.4110047450049237 1.3834749113544080
5938 3 -2.0 19.5879070542778031 38.0865690254998555 3.0031660760543750
5939 3 -2.0 21.9232810879068403 38.0865690254998555 3.5767954050587982
5940 3 -2.0 20.1134515174158359 32.4110047450049237 0.8098455823499836
5941 1 2.0 21.3650299462614264 33.6465692995590970 4.4885853727985285
5942 1 2.0 20.6717026590612498 36.8510044709456750 8.6713375894278162
5943 1 2.0 23.0070766926902905 36.8510044709456750 6.6819058665029205
5944 1 2.0 19.0296559126323892 33.6465692995590970 6.4780170957234269
5945 2 4.0 18.6829922690323009 35.2487868852523860 4.3866409874087822
5946 2 4.0 21.0183663026613381 35.2487868852523860 6.5799614811131732
5947 2 4.0 18.6829922690323009 32.0443517138658081 4.3866409874087822
5948 2 4.0 21.0183663026613381 32.0443517138658081 6.5799614811131732
5949 3 -2.0 20.8599800650696920 33.6465692995590970 7.0838083899081470
5950 3 -2.0 21.1767525402529841 36.8510044709456750 6.0761145723181995
5951 3 -2.0 18.8413785066239470 36.8510044709456750 4.8904878962037559
5952 3 -2.0 23.1953540986987328 33.6465692995590970 8.2694350660225915
5953 3 -2.0 19.5879070542778031 35.6154399163915016 7.3898070634631576
5954 3 -2.0 22.4488255510448731 34.8821338541132704 5.7701158987631906
5955 3 -2.0 20.1134515174158359 34.8821338541132704 5.1964865697587657
5956 3 -2.0 21.9232810879068403 35.6154399163915016 7.9634363924675799
5957 3 -2.0 22.4488255510448731 32.4110047450049237 5.7701158987631906
5958 3 -2.0 19.5879070542778031 38.0865690254998555 7.3898070634631576
5959 3 -2.0 21.9232810879068403 38.0865690254998555 7.9634363924675799
5960 3 -2.0 20.1134515174158359 32.4110047450049237 5.1964865697587657
5961 1 2.0 21.3650299462614264 33.6465692995590970 8.8752263602073107
5962 1 2.0 20.6717026590612498 36.8510044709456750 13.0579785768365984
5963 1 2.0 23.0070766926902905 36.8510044709456750 11.0685468539117036
5964 1 2.0 19.0296559126323892 33.6465692995590970 10.8646580831322090
5965 2 4.0 18.6829922690323009 35.2487868852523860 8.7732819748175643
5966 2 4.0 21.0183663026613381 35.2487868852523860 10.9666024685219554
5967 2 4.0 18.6829922690323009 32.0443517138658081 8.7732819748175643
5968 2 4.0 21.0183663026613381 32.0443517138658081 10.9666024685219554
5969 3 -2.0 20.8599800650696920 33.6465692995590970 11.4704493773169283
5970 3 -2.0 21.1767525402529841 36.8510044709456750 10.4627555597269826
5971 3 -2.0 18.8413785066239470 36.8510044709456750 9.2771288836125372
5972 3 -2.0 23.1953540986987328 33.6465692995590970 12.6560760534313737
5973 3 -2.0 19.5879070542778031 35.6154399163915016 11.7764480508719398
5974 3 -2.0 22.4488255510448731 34.8821338541132704 10.1567568861719728
5975 3 -2.0 20.1134515174158359 34.8821338541132704 9.5831275571675469
5976 3 -2.0 21.9232810879068403 35.6154399163915016 12.3500773798763621
5977 3 -2.0 22.4488255510448731 32.4110047450049237 10.1567568861719728
5978 3 -2.0 19.5879070542778031 38.0865690254998555 11.7764480508719398
5979 3 -2.0 21.9232810879068403 38.0865690254998555 12.3500773798763621
5980 3 -2.0 20.1134515174158359 32.4110047450049237 9.5831275571675469
5981 1 2.0 21.3650299462614264 33.6465692995590970 13.2618673476160929
5982 1 2.0 20.6717026590612498 36.8510044709456750 17.4446195642453823
5983 1 2.0 23.0070766926902905 36.8510044709456750 15.4551878413204857
5984 1 2.0 19.0296559126323892 33.6465692995590970 15.2512990705409912
5985 2 4.0 18.6829922690323009 35.2487868852523860 13.1599229622263465
5986 2 4.0 21.0183663026613381 35.2487868852523860 15.3532434559307376
5987 2 4.0 18.6829922690323009 32.0443517138658081 13.1599229622263465
5988 2 4.0 21.0183663026613381 32.0443517138658081 15.3532434559307376
5989 3 -2.0 20.8599800650696920 33.6465692995590970 15.8570903647257104
5990 3 -2.0 21.1767525402529841 36.8510044709456750 14.8493965471357647
5991 3 -2.0 18.8413785066239470 36.8510044709456750 13.6637698710213193
5992 3 -2.0 23.1953540986987328 33.6465692995590970 17.0427170408401558
5993 3 -2.0 19.5879070542778031 35.6154399163915016 16.1630890382807237
5994 3 -2.0 22.4488255510448731 34.8821338541132704 14.5433978735807550
5995 3 -2.0 20.1134515174158359 34.8821338541132704 13.9697685445763291
5996 3 -2.0 21.9232810879068403 35.6154399163915016 16.7367183672851425
5997 3 -2.0 22.4488255510448731 32.4110047450049237 14.5433978735807550
5998 3 -2.0 19.5879070542778031 38.0865690254998555 16.1630890382807237
5999 3 -2.0 21.9232810879068403 38.0865690254998555 16.7367183672851425
6000 3 -2.0 20.1134515174158359 32.4110047450049237 13.9697685445763291
6001 1 2.0 21.3650299462614264 33.6465692995590970 17.6485083350248750
6002 1 2.0 20.6717026590612498 36.8510044709456750 21.8312605516541645
6003 1 2.0 23.0070766926902905 36.8510044709456750 19.8418288287292661
6004 1 2.0 19.0296559126323892 33.6465692995590970 19.6379400579497734
6005 2 4.0 18.6829922690323009 35.2487868852523860 17.5465639496351287
6006 2 4.0 21.0183663026613381 35.2487868852523860 19.7398844433395197
6007 2 4.0 18.6829922690323009 32.0443517138658081 17.5465639496351287
6008 2 4.0 21.0183663026613381 32.0443517138658081 19.7398844433395197
6009 3 -2.0 20.8599800650696920 33.6465692995590970 20.2437313521344926
6010 3 -2.0 21.1767525402529841 36.8510044709456750 19.2360375345445433
6011 3 -2.0 18.8413785066239470 36.8510044709456750 18.0504108584301051
6012 3 -2.0 23.1953540986987328 33.6465692995590970 21.4293580282489380
6013 3 -2.0 19.5879070542778031 35.6154399163915016 20.5497300256895024
6014 3 -2.0 22.4488255510448731 34.8821338541132704 18.9300388609895371
6015 3 -2.0 20.1134515174158359 34.8821338541132704 18.3564095319851113
6016 3 -2.0 21.9232810879068403 35.6154399163915016 21.1233593546939282
6017 3 -2.0 22.4488255510448731 32.4110047450049237 18.9300388609895371
6018 3 -2.0 19.5879070542778031 38.0865690254998555 20.5497300256895024
6019 3 -2.0 21.9232810879068403 38.0865690254998555 21.1233593546939282
6020 3 -2.0 20.1134515174158359 32.4110047450049237 18.3564095319851113
6021 1 2.0 21.3650299462614264 33.6465692995590970 22.0351493224336572
6022 1 2.0 20.6717026590612498 36.8510044709456750 26.2179015390629466
6023 1 2.0 23.0070766926902905 36.8510044709456750 24.2284698161380483
6024 1 2.0 19.0296559126323892 33.6465692995590970 24.0245810453585555
6025 2 4.0 18.6829922690323009 35.2487868852523860 21.9332049370439108
6026 2 4.0 21.0183663026613381 35.2487868852523860 24.1265254307483019
6027 2 4.0 18.6829922690323009 32.0443517138658081 21.9332049370439108
6028 2 4.0 21.0183663026613381 32.0443517138658081 24.1265254307483019
6029 3 -2.0 20.8599800650696920 33.6465692995590970 24.6303723395432748
6030 3 -2.0 21.1767525402529841 36.8510044709456750 23.6226785219533255
6031 3 -2.0 18.8413785066239470 36.8510044709456750 22.4370518458388872
6032 3 -2.0 23.1953540986987328 33.6465692995590970 25.8159990156577202
6033 3 -2.0 19.5879070542778031 35.6154399163915016 24.9363710130982845
6034 3 -2.0 22.4488255510448731 34.8821338541132704 23.3166798483983193
6035 3 -2.0 20.1134515174158359 34.8821338541132704 22.7430505193938934
6036 3 -2.0 21.9232810879068403 35.6154399163915016 25.5100003421027104
6037 3 -2.0 22.4488255510448731 32.4110047450049237 23.3166798483983193
6038 3 -2.0 19.5879070542778031 38.0865690254998555 24.9363710130982845
6039 3 -2.0 21.9232810879068403 38.0865690254998555 25.5100003421027104
6040 3 -2.0 20.1134515174158359 32.4110047450049237 22.7430505193938934
6041 1 2.0 21.3650299462614264 33.6465692995590970 26.4217903098424394
6042 1 2.0 20.6717026590612498 36.8510044709456750 30.6045425264717288
6043 1 2.0 23.0070766926902905 36.8510044709456750 28.6151108035468305
6044 1 2.0 19.0296559126323892 33.6465692995590970 28.4112220327673377
6045 2 4.0 18.6829922690323009 35.2487868852523860 26.3198459244526930
6046 2 4.0 21.0183663026613381 35.2487868852523860 28.5131664181570841
6047 2 4.0 18.6829922690323009 32.0443517138658081 26.3198459244526930
6048 2 4.0 21.0183663026613381 32.0443517138658081 28.5131664181570841
6049 3 -2.0 20.8599800650696920 33.6465692995590970 29.0170133269520569
6050 3 -2.0 21.1767525402529841 36.8510044709456750 28.0093195093621077
6051 3 -2.0 18.8413785066239470 36.8510044709456750 26.8236928332476694
6052 3 -2.0 23.1953540986987328 33.6465692995590970 30.2026400030665023
6053 3 -2.0 19.5879070542778031 35.6154399163915016 29.3230120005070667
6054 3 -2.0 22.4488255510448731 34.8821338541132704 27.7033208358071015
6055 3 -2.0 20.1134515174158359 34.8821338541132704 27.1296915068026756
6056 3 -2.0 21.9232810879068403 35.6154399163915016 29.8966413295114926
6057 3 -2.0 22.4488255510448731 32.4110047450049237 27.7033208358071015
6058 3 -2.0 19.5879070542778031 38.0865690254998555 29.3230120005070667
6059 3 -2.0 21.9232810879068403 38.0865690254998555 29.8966413295114926
6060 3 -2.0 20.1134515174158359 32.4110047450049237 27.1296915068026756
6061 1 2.0 21.3650299462614264 33.6465692995590970 30.8084312972512215
6062 1 2.0 20.6717026590612498 36.8510044709456750 34.9911835138805074
6063 1 2.0 23.0070766926902905 36.8510044709456750 33.0017517909556162
6064 1 2.0 19.0296559126323892 33.6465692995590970 32.7978630201761163
6065 2 4.0 18.6829922690323009 35.2487868852523860 30.7064869118614752
6066 2 4.0 21.0183663026613381 35.2487868852523860 32.8998074055658662
6067 2 4.0 18.6829922690323009 32.0443517138658081 30.7064869118614752
6068 2 4.0 21.0183663026613381 32.0443517138658081 32.8998074055658662
6069 3 -2.0 20.8599800650696920 33.6465692995590970 33.4036543143608355
6070 3 -2.0 21.1767525402529841 36.8510044709456750 32.3959604967708898
6071 3 -2.0 18.8413785066239470 36.8510044709456750 31.2103338206564516
6072 3 -2.0 23.1953540986987328 33.6465692995590970 34.5892809904752880
6073 3 -2.0 19.5879070542778031 35.6154399163915016 33.7096529879158524
6074 3 -2.0 22.4488255510448731 34.8821338541132704 32.0899618232158801
6075 3 -2.0 20.1134515174158359 34.8821338541132704 31.5163324942114578
6076 3 -2.0 21.9232810879068403 35.6154399163915016 34.2832823169202712
6077 3 -2.0 22.4488255510448731 32.4110047450049237 32.0899618232158801
6078 3 -2.0 19.5879070542778031 38.0865690254998555 33.7096529879158524
6079 3 -2.0 21.9232810879068403 38.0865690254998555 34.2832823169202712
6080 3 -2.0 20.1134515174158359 32.4110047450049237 31.5163324942114578
6081 1 2.0 21.3650299462614264 40.0554396423322601 0.1019443853897463
6082 1 2.0 20.6717026590612498 43.2598748137188380 4.2846966020190349
6083 1 2.0 23.0070766926902905 43.2598748137188380 2.2952648790941383
6084 1 2.0 19.0296559126323892 40.0554396423322601 2.0913761083146447
6085 2 4.0 18.6829922690323009 41.6576572280255490 0.0000000000000000
6086 2 4.0 21.0183663026613381 41.6576572280255490 2.1933204937043911
6087 2 4.0 18.6829922690323009 38.4532220566389640 0.0000000000000000
6088 2 4.0 21.0183663026613381 38.4532220566389640 2.1933204937043911
6089 3 -2.0 20.8599800650696920 40.0554396423322601 2.6971674024993644
6090 3 -2.0 21.1767525402529841 43.2598748137188380 1.6894735849094176
6091 3 -2.0 18.8413785066239470 43.2598748137188380 0.5038469087949736
6092 3 -2.0 23.1953540986987328 40.0554396423322601 3.8827940786138089
6093 3 -2.0 19.5879070542778031 42.0243102591646647 3.0031660760543750
6094 3 -2.0 22.4488255510448731 41.2910041968864334 1.3834749113544080
6095 3 -2.0 20.1134515174158359 41.2910041968864334 0.8098455823499836
6096 3 -2.0 21.9232810879068403 42.0243102591646647 3.5767954050587982
6097 3 -2.0 22.4488255510448731 38.8198750877780796 1.3834749113544080
6098 3 -2.0 19.5879070542778031 44.4954393682730114 3.0031660760543750
6099 3 -2.0 21.9232810879068403 44.4954393682730114 3.5767954050587982
6100 3 -2.0 20.1134515174158359 38.8198750877780796 0.8098455823499836
6101 1 2.0 21.3650299462614264 40.0554396423322601 4.4885853727985285
6102 1 2.0 20.6717026590612498 43.2598748137188380 8.6713375894278162
6103 1 2.0 23.0070766926902905 43.2598748137188380 6.6819058665029205
6104 1 2.0 19.0296559126323892 40.0554396423322601 6.4780170957234269
6105 2 4.0 18.6829922690323009 41.6576572280255490 4.3866409874087822
6106 2 4.0 21.0183663026613381 41.6576572280255490 6.5799614811131732
6107 2 4.0 18.6829922690323009 38.4532220566389640 4.3866409874087822
6108 2 4.0 21.0183663026613381 38.4532220566389640 6.5799614811131732
6109 3 -2.0 20.8599800650696920 40.0554396423322601 7.0838083899081470
6110 3 -2.0 21.1767525402529841 43.2598748137188380 6.0761145723181995
6111 3 -2.0 18.8413785066239470 43.2598748137188380 4.8904878962037559
6112 3 -2.0 23.1953540986987328 40.0554396423322601 8.2694350660225915
6113 3 -2.0 19.5879070542778031 42.0243102591646647 7.3898070634631576
6114 3 -2.0 22.4488255510448731 41.2910041968864334 5.7701158987631906
6115 3 -2.0 20.1134515174158359 41.2910041968864334 5.1964865697587657
6116 3 -2.0 21.9232810879068403 42.0243102591646647 7.9634363924675799
6117 3 -2.0 22.4488255510448731 38.8198750877780796 5.7701158987631906
6118 3 -2.0 19.5879070542778031 44.4954393682730114 7.3898070634631576
6119 3 -2.0 21.9232810879068403 44.4954393682730114 7.9634363924675799
6120 3 -2.0 20.1134515174158359 38.8198750877780796 5.1964865697587657
6121 1 2.0 21.3650299462614264 40.0554396423322601 8.8752263602073107
6122 1 2.0 20.6717026590612498 43.2598748137188380 13.0579785768365984
6123 1 2.0 23.0070766926902905 43.2598748137188380 11.0685468539117036
6124 1 2.0 19.0296559126323892 40.0554396423322601 10.8646580831322090
6125 2 4.0 18.6829922690323009 41.6576572280255490 8.7732819748175643
6126 2 4.0 21.0183663026613381 41.6576572280255490 10.9666024685219554
6127 2 4.0 18.6829922690323009 38.4532220566389640 8.7732819748175643
6128 2 4.0 21.0183663026613381 38.4532220566389640 10.9666024685219554
6129 3 -2.0 20.8599800650696920 40.0554396423322601 11.4704493773169283
6130 3 -2.0 21.1767525402529841 43.2598748137188380 10.4627555597269826
6131 3 -2.0 18.8413785066239470 43.2598748137188380 9.2771288836125372
6132 3 -2.0 23.1953540986987328 40.0554396423322601 12.6560760534313737
6133 3 -2.0 19.5879070542778031 42.0243102591646647 11.7764480508719398
6134 3 -2.0 22.4488255510448731 41.2910041968864334 10.1567568861719728
6135 3 -2.0 20.1134515174158359 41.2910041968864334 9.5831275571675469
6136 3 -2.0 21.9232810879068403 42.0243102591646647 12.3500773798763621
6137 3 -2.0 22.4488255510448731 38.8198750877780796 10.1567568861719728
6138 3 -2.0 19.5879070542778031 44.4954393682730114 11.7764480508719398
6139 3 -2.0 21.9232810879068403 44.4954393682730114 12.3500773798763621
6140 3 -2.0 20.1134515174158359 38.8198750877780796 9.5831275571675469
6141 1 2.0 21.3650299462614264 40.0554396423322601 13.2618673476160929
6142 1 2.0 20.6717026590612498 43.2598748137188380 17.4446195642453823
6143 1 2.0 23.0070766926902905 43.2598748137188380 15.4551878413204857
6144 1 2.0 19.0296559126323892 40.0554396423322601 15.2512990705409912
6145 2 4.0 18.6829922690323009 41.6576572280255490 13.1599229622263465
6146 2 4.0 21.0183663026613381 41.6576572280255490 15.3532434559307376
6147 2 4.0 18.6829922690323009 38.4532220566389640 13.1599229622263465
6148 2 4.0 21.0183663026613381 38.4532220566389640 15.3532434559307376
6149 3 -2.0 20.8599800650696920 40.0554396423322601 15.8570903647257104
6150 3 -2.0 21.1767525402529841 43.2598748137188380 14.8493965471357647
6151 3 -2.0 18.8413785066239470 43.2598748137188380 13.6637698710213193
6152 3 -2.0 23.1953540986987328 40.0554396423322601 17.0427170408401558
6153 3 -2.0 19.5879070542778031 42.0243102591646647 16.1630890382807237
6154 3 -2.0 22.4488255510448731 41.2910041968864334 14.5433978735807550
6155 3 -2.0 20.1134515174158359 41.2910041968864334 13.9697685445763291
6156 3 -2.0 21.9232810879068403 42.0243102591646647 16.7367183672851425
6157 3 -2.0 22.4488255510448731 38.8198750877780796 14.5433978735807550
6158 3 -2.0 19.5879070542778031 44.4954393682730114 16.1630890382807237
6159 3 -2.0 21.9232810879068403 44.4954393682730114 16.7367183672851425
6160 3 -2.0 20.1134515174158359 38.8198750877780796 13.9697685445763291
6161 1 2.0 21.3650299462614264 40.0554396423322601 17.6485083350248750
6162 1 2.0 20.6717026590612498 43.2598748137188380 21.8312605516541645
6163 1 2.0 23.0070766926902905 43.2598748137188380 19.8418288287292661
6164 1 2.0 19.0296559126323892 40.0554396423322601 19.6379400579497734
6165 2 4.0 18.6829922690323009 41.6576572280255490 17.5465639496351287
6166 2 4.0 21.0183663026613381 41.6576572280255490 19.7398844433395197
6167 2 4.0 18.6829922690323009 38.4532220566389640 17.5465639496351287
6168 2 4.0 21.0183663026613381 38.4532220566389640 19.7398844433395197
6169 3 -2.0 20.8599800650696920 40.0554396423322601 20.2437313521344926
6170 3 -2.0 21.1767525402529841 43.2598748137188380 19.2360375345445433
6171 3 -2.0 18.8413785066239470 43.2598748137188380 18.0504108584301051
6172 3 -2.0 23.1953540986987328 40.0554396423322601 21.4293580282489380
6173 3 -2.0 19.5879070542778031 42.0243102591646647 20.5497300256895024
6174 3 -2.0 22.4488255510448731 41.2910041968864334 18.9300388609895371
6175 3 -2.0 20.1134515174158359 41.2910041968864334 18.3564095319851113
6176 3 -2.0 21.9232810879068403 42.0243102591646647 21.1233593546939282
6177 3 -2.0 22.4488255510448731 38.8198750877780796 18.9300388609895371
6178 3 -2.0 19.5879070542778031 44.4954393682730114 20.5497300256895024
6179 3 -2.0 21.9232810879068403 44.4954393682730114 21.1233593546939282
6180 3 -2.0 20.1134515174158359 38.8198750877780796 18.3564095319851113
6181 1 2.0 21.3650299462614264 40.0554396423322601 22.0351493224336572
6182 1 2.0 20.6717026590612498 43.2598748137188380 26.2179015390629466
6183 1 2.0 23.0070766926902905 43.2598748137188380 24.2284698161380483
6184 1 2.0 19.0296559126323892 40.0554396423322601 24.0245810453585555
6185 2 4.0 18.6829922690323009 41.6576572280255490 21.9332049370439108
6186 2 4.0 21.0183663026613381 41.6576572280255490 24.1265254307483019
6187 2 4.0 18.6829922690323009 38.4532220566389640 21.9332049370439108
6188 2 4.0 21.0183663026613381 38.4532220566389640 24.1265254307483019
6189 3 -2.0 20.8599800650696920 40.0554396423322601 24.6303723395432748
6190 3 -2.0 21.1767525402529841 43.2598748137188380 23.6226785219533255
6191 3 -2.0 18.8413785066239470 43.2598748137188380 22.4370518458388872
6192 3 -2.0 23.1953540986987328 40.0554396423322601 25.8159990156577202
6193 3 -2.0 19.5879070542778031 42.0243102591646647 24.9363710130982845
6194 3 -2.0 22.4488255510448731 41.2910041968864334 23.3166798483983193
6195 3 -2.0 20.1134515174158359 41.2910041968864334 22.7430505193938934
6196 3 -2.0 21.9232810879068403 42.0243102591646647 25.5100003421027104
6197 3 -2.0 22.4488255510448731 38.8198750877780796 23.3166798483983193
6198 3 -2.0 19.5879070542778031 44.4954393682730114 24.9363710130982845
6199 3 -2.0 21.9232810879068403 44.4954393682730114 25.5100003421027104
6200 3 -2.0 20.1134515174158359 38.8198750877780796 22.7430505193938934
6201 1 2.0 21.3650299462614264 40.0554396423322601 26.4217903098424394
6202 1 2.0 20.6717026590612498 43.2598748137188380 30.6045425264717288
6203 1 2.0 23.0070766926902905 43.2598748137188380 28.6151108035468305
6204 1 2.0 19.0296559126323892 40.0554396423322601 28.4112220327673377
6205 2 4.0 18.6829922690323009 41.6576572280255490 26.3198459244526930
6206 2 4.0 21.0183663026613381 41.6576572280255490 28.5131664181570841
6207 2 4.0 18.6829922690323009 38.4532220566389640 26.3198459244526930
6208 2 4.0 21.0183663026613381 38.4532220566389640 28.5131664181570841
6209 3 -2.0 20.8599800650696920 40.0554396423322601 29.0170133269520569
6210 3 -2.0 21.1767525402529841 43.2598748137188380 28.0093195093621077
6211 3 -2.0 18.8413785066239470 43.2598748137188380 26.8236928332476694
6212 3 -2.0 23.1953540986987328 40.0554396423322601 30.2026400030665023
6213 3 -2.0 19.5879070542778031 42.0243102591646647 29.3230120005070667
6214 3 -2.0 22.4488255510448731 41.2910041968864334 27.7033208358071015
6215 3 -2.0 20.1134515174158359 41.2910041968864334 27.1296915068026756
6216 3 -2.0 21.9232810879068403 42.0243102591646647 29.8966413295114926
6217 3 -2.0 22.4488255510448731 38.8198750877780796 27.7033208358071015
6218 3 -2.0 19.5879070542778031 44.4954393682730114 29.3230120005070667
6219 3 -2.0 21.9232810879068403 44.4954393682730114 29.8966413295114926
6220 3 -2.0 20.1134515174158359 38.8198750877780796 27.1296915068026756
6221 1 2.0 21.3650299462614264 40.0554396423322601 30.8084312972512215
6222 1 2.0 20.6717026590612498 43.2598748137188380 34.9911835138805074
6223 1 2.0 23.0070766926902905 43.2598748137188380 33.0017517909556162
6224 1 2.0 19.0296559126323892 40.0554396423322601 32.7978630201761163
6225 2 4.0 18.6829922690323009 41.6576572280255490 30.7064869118614752
6226 2 4.0 21.0183663026613381 41.6576572280255490 32.8998074055658662
6227 2 4.0 18.6829922690323009 38.4532220566389640 30.7064869118614752
6228 2 4.0 21.0183663026613381 38.4532220566389640 32.8998074055658662
6229 3 -2.0 20.8599800650696920 40.0554396423322601 33.4036543143608355
6230 3 -2.0 21.1767525402529841 43.2598748137188380 32.3959604967708898
6231 3 -2.0 18.8413785066239470 43.2598748137188380 31.2103338206564516
6232 3 -2.0 23.1953540986987328 40.0554396423322601 34.5892809904752880
6233 3 -2.0 19.5879070542778031 42.0243102591646647 33.7096529879158524
6234 3 -2.0 22.4488255510448731 41.2910041968864334 32.0899618232158801
6235 3 -2.0 20.1134515174158359 41.2910041968864334 31.5163324942114578
6236 3 -2.0 21.9232810879068403 42.0243102591646647 34.2832823169202712
6237 3 -2.0 22.4488255510448731 38.8198750877780796 32.0899618232158801
6238 3 -2.0 19.5879070542778031 44.4954393682730114 33.7096529879158524
6239 3 -2.0 21.9232810879068403 44.4954393682730114 34.2832823169202712
6240 3 -2.0 20.1134515174158359 38.8198750877780796 31.5163324942114578
6241 1 2.0 21.3650299462614264 46.4643099851054160 0.1019443853897463
6242 1 2.0 20.6717026590612498 49.6687451564920011 4.2846966020190349
6243 1 2.0 23.0070766926902905 49.6687451564920011 2.2952648790941383
6244 1 2.0 19.0296559126323892 46.4643099851054160 2.0913761083146447
6245 2 4.0 18.6829922690323009 48.0665275707987121 0.0000000000000000
6246 2 4.0 21.0183663026613381 48.0665275707987121 2.1933204937043911
6247 2 4.0 18.6829922690323009 44.8620923994121270 0.0000000000000000
6248 2 4.0 21.0183663026613381 44.8620923994121270 2.1933204937043911
6249 3 -2.0 20.8599800650696920 46.4643099851054160 2.6971674024993644
6250 3 -2.0 21.1767525402529841 49.6687451564920011 1.6894735849094176
6251 3 -2.0 18.8413785066239470 49.6687451564920011 0.5038469087949736
6252 3 -2.0 23.1953540986987328 46.4643099851054160 3.8827940786138089
6253 3 -2.0 19.5879070542778031 48.4331806019378206 3.0031660760543750
6254 3 -2.0 22.4488255510448731 47.6998745396595965 1.3834749113544080
6255 3 -2.0 20.1134515174158359 47.6998745396595965 0.8098455823499836
6256 3 -2.0 21.9232810879068403 48.4331806019378206 3.5767954050587982
6257 3 -2.0 22.4488255510448731 45.2287454305512426 1.3834749113544080
6258 3 -2.0 19.5879070542778031 50.9043097110461744 3.0031660760543750
6259 3 -2.0 21.9232810879068403 50.9043097110461744 3.5767954050587982
6260 3 -2.0 20.1134515174158359 45.2287454305512426 0.8098455823499836
6261 1 2.0 21.3650299462614264 46.4643099851054160 4.4885853727985285
6262 1 2.0 20.6717026590612498 49.6687451564920011 8.6713375894278162
6263 1 2.0 23.0070766926902905 49.6687451564920011 6.6819058665029205
6264 1 2.0 19.0296559126323892 46.4643099851054160 6.4780170957234269
6265 2 4.0 18.6829922690323009 48.0665275707987121 4.3866409874087822
6266 2 4.0 21.0183663026613381 48.0665275707987121 6.5799614811131732
6267 2 4.0 18.6829922690323009 44.8620923994121270 4.3866409874087822
6268 2 4.0 21.0183663026613381 44.8620923994121270 6.5799614811131732
6269 3 -2.0 20.8599800650696920 46.4643099851054160 7.0838083899081470
6270 3 -2.0 21.1767525402529841 49.6687451564920011 6.0761145723181995
6271 3 -2.0 18.8413785066239470 49.6687451564920011 4.8904878962037559
6272 3 -2.0 23.1953540986987328 46.4643099851054160 8.2694350660225915
6273 3 -2.0 19.5879070542778031 48.4331806019378206 7.3898070634631576
6274 3 -2.0 22.4488255510448731 47.6998745396595965 5.7701158987631906
6275 3 -2.0 20.1134515174158359 47.6998745396595965 5.1964865697587657
6276 3 -2.0 21.9232810879068403 48.4331806019378206 7.9634363924675799
6277 3 -2.0 22.4488255510448731 45.2287454305512426 5.7701158987631906
6278 3 -2.0 19.5879070542778031 50.9043097110461744 7.3898070634631576
6279 3 -2.0 21.9232810879068403 50.9043097110461744 7.9634363924675799
6280 3 -2.0 20.1134515174158359 45.2287454305512426 5.1964865697587657
6281 1 2.0 21.3650299462614264 46.4643099851054160 8.8752263602073107
6282 1 2.0 20.6717026590612498 49.6687451564920011 13.0579785768365984
6283 1 2.0 23.0070766926902905 49.6687451564920011 11.0685468539117036
6284 1 2.0 19.0296559126323892 46.4643099851054160 10.8646580831322090
6285 2 4.0 18.6829922690323009 48.0665275707987121 8.7732819748175643
6286 2 4.0 21.0183663026613381 48.0665275707987121 10.9666024685219554
6287 2 4.0 18.6829922690323009 44.8620923994121270 8.7732819748175643
6288 2 4.0 21.0183663026613381 44.8620923994121270 10.9666024685219554
6289 3 -2.0 20.8599800650696920 46.4643099851054160 11.4704493773169283
6290 3 -2.0 21.1767525402529841 49.6687451564920011 10.4627555597269826
6291 3 -2.0 18.8413785066239470 49.6687451564920011 9.2771288836125372
6292 3 -2.0 23.1953540986987328 46.4643099851054160 12.6560760534313737
6293 3 -2.0 19.5879070542778031 48.4331806019378206 11.7764480508719398
6294 3 -2.0 22.4488255510448731 47.6998745396595965 10.1567568861719728
6295 3 -2.0 20.1134515174158359 47.6998745396595965 9.5831275571675469
6296 3 -2.0 21.9232810879068403 48.4331806019378206 12.3500773798763621
6297 3 -2.0 22.4488255510448731 45.2287454305512426 10.1567568861719728
6298 3 -2.0 19.5879070542778031 50.9043097110461744 11.7764480508719398
6299 3 -2.0 21.9232810879068403 50.9043097110461744 12.3500773798763621
6300 3 -2.0 20.1134515174158359 45.2287454305512426 9.5831275571675469
6301 1 2.0 21.3650299462614264 46.4643099851054160 13.2618673476160929
6302 1 2.0 20.6717026590612498 49.6687451564920011 17.4446195642453823
6303 1 2.0 23.0070766926902905 49.6687451564920011 15.4551878413204857
6304 1 2.0 19.0296559126323892 46.4643099851054160 15.2512990705409912
6305 2 4.0 18.6829922690323009 48.0665275707987121 13.1599229622263465
6306 2 4.0 21.0183663026613381 48.0665275707987121 15.3532434559307376
6307 2 4.0 18.6829922690323009 44.8620923994121270 13.1599229622263465
6308 2 4.0 21.0183663026613381 44.8620923994121270 15.3532434559307376
6309 3 -2.0 20.8599800650696920 46.4643099851054160 15.8570903647257104
6310 3 -2.0 21.1767525402529841 49.6687451564920011 14.8493965471357647
6311 3 -2.0 18.8413785066239470 49.6687451564920011 13.6637698710213193
6312 3 -2.0 23.1953540986987328 46.4643099851054160 17.0427170408401558
6313 3 -2.0 19.5879070542778031 48.4331806019378206 16.1630890382807237
6314 3 -2.0 22.4488255510448731 47.6998745396595965 14.5433978735807550
6315 3 -2.0 20.1134515174158359 47.6998745396595965 13.9697685445763291
6316 3 -2.0 21.9232810879068403 48.4331806019378206 16.7367183672851425
6317 3 -2.0 22.4488255510448731 45.2287454305512426 14.5433978735807550
6318 3 -2.0 19.5879070542778031 50.9043097110461744 16.1630890382807237
6319 3 -2.0 21.9232810879068403 50.9043097110461744 16.7367183672851425
6320 3 -2.0 20.1134515174158359 45.2287454305512426 13.9697685445763291
6321 1 2.0 21.3650299462614264 46.4643099851054160 17.6485083350248750
6322 1 2.0 20.6717026590612498 49.6687451564920011 21.8312605516541645
6323 1 2.0 23.0070766926902905 49.6687451564920011 19.8418288287292661
6324 1 2.0 19.0296559126323892 46.4643099851054160 19.6379400579497734
6325 2 4.0 18.6829922690323009 48.0665275707987121 17.5465639496351287
6326 2 4.0 21.0183663026613381 48.0665275707987121 19.7398844433395197
6327 2 4.0 18.6829922690323009 44.8620923994121270 17.5465639496351287
6328 2 4.0 21.0183663026613381 44.8620923994121270 19.7398844433395197
6329 3 -2.0 20.8599800650696920 46.4643099851054160 20.2437313521344926
6330 3 -2.0 21.1767525402529841 49.6687451564920011 19.2360375345445433
6331 3 -2.0 18.8413785066239470 49.6687451564920011 18.0504108584301051
6332 3 -2.0 23.1953540986987328 46.4643099851054160 21.4293580282489380
6333 3 -2.0 19.5879070542778031 48.4331806019378206 20.5497300256895024
6334 3 -2.0 22.4488255510448731 47.6998745396595965 18.9300388609895371
6335 3 -2.0 20.1134515174158359 47.6998745396595965 18.3564095319851113
6336 3 -2.0 21.9232810879068403 48.4331806019378206 21.1233593546939282
6337 3 -2.0 22.4488255510448731 45.2287454305512426 18.9300388609895371
6338 3 -2.0 19.5879070542778031 50.9043097110461744 20.5497300256895024
6339 3 -2.0 21.9232810879068403 50.9043097110461744 21.1233593546939282
6340 3 -2.0 20.1134515174158359 45.2287454305512426 18.3564095319851113
6341 1 2.0 21.3650299462614264 46.4643099851054160 22.0351493224336572
6342 1 2.0 20.6717026590612498 49.6687451564920011 26.2179015390629466
6343 1 2.0 23.0070766926902905 49.6687451564920011 24.2284698161380483
6344 1 2.0 19.0296559126323892 46.4643099851054160 24.0245810453585555
6345 2 4.0 18.6829922690323009 48.0665275707987121 21.9332049370439108
6346 2 4.0 21.0183663026613381 48.0665275707987121 24.1265254307483019
6347 2 4.0 18.6829922690323009 44.8620923994121270 21.9332049370439108
6348 2 4.0 21.0183663026613381 44.8620923994121270 24.1265254307483019
6349 3 -2.0 20.8599800650696920 46.4643099851054160 24.6303723395432748
6350 3 -2.0 21.1767525402529841 49.6687451564920011 23.6226785219533255
6351 3 -2.0 18.8413785066239470 49.6687451564920011 22.4370518458388872
6352 3 -2.0 23.1953540986987328 46.4643099851054160 25.8159990156577202
6353 3 -2.0 19.5879070542778031 48.4331806019378206 24.9363710130982845
6354 3 -2.0 22.4488255510448731 47.6998745396595965 23.3166798483983193
6355 3 -2.0 20.1134515174158359 47.6998745396595965 22.7430505193938934
6356 3 -2.0 21.9232810879068403 48.4331806019378206 25.5100003421027104
6357 3 -2.0 22.4488255510448731 45.2287454305512426 23.3166798483983193
6358 3 -2.0 19.5879070542778031 50.9043097110461744 24.9363710130982845
6359 3 -2.0 21.9232810879068403 50.9043097110461744 25.5100003421027104
6360 3 -2.0 20.1134515174158359 45.2287454305512426 22.7430505193938934
6361 1 2.0 21.3650299462614264 46.4643099851054160 26.4217903098424394
6362 1 2.0 20.6717026590612498 49.6687451564920011 30.6045425264717288
6363 1 2.0 23.0070766926902905 49.6687451564920011 28.6151108035468305
6364 1 2.0 19.0296559126323892 46.4643099851054160 28.4112220327673377
6365 2 4.0 18.6829922690323009 48.0665275707987121 26.3198459244526930
6366 2 4.0 21.0183663026613381 48.0665275707987121 28.5131664181570841
6367 2 4.0 18.6829922690323009 44.8620923994121270 26.3198459244526930
6368 2 4.0 21.0183663026613381 44.8620923994121270 28.5131664181570841
6369 3 -2.0 20.8599800650696920 46.4643099851054160 29.0170133269520569
6370 3 -2.0 21.1767525402529841 49.6687451564920011 28.0093195093621077
6371 3 -2.0 18.8413785066239470 49.6687451564920011 26.8236928332476694
6372 3 -2.0 23.1953540986987328 46.4643099851054160 30.2026400030665023
6373 3 -2.0 19.5879070542778031 48.4331806019378206 29.3230120005070667
6374 3 -2.0 22.4488255510448731 47.6998745396595965 27.7033208358071015
6375 3 -2.0 20.1134515174158359 47.6998745396595965 27.1296915068026756
6376 3 -2.0 21.9232810879068403 48.4331806019378206 29.8966413295114926
6377 3 -2.0 22.4488255510448731 45.2287454305512426 27.7033208358071015
6378 3 -2.0 19.5879070542778031 50.9043097110461744 29.3230120005070667
6379 3 -2.0 21.9232810879068403 50.9043097110461744 29.8966413295114926
6380 3 -2.0 20.1134515174158359 45.2287454305512426 27.1296915068026756
6381 1 2.0 21.3650299462614264 46.4643099851054160 30.8084312972512215
6382 1 2.0 20.6717026590612498 49.6687451564920011 34.9911835138805074
6383 1 2.0 23.0070766926902905 49.6687451564920011 33.0017517909556162
6384 1 2.0 19.0296559126323892 46.4643099851054160 32.7978630201761163
6385 2 4.0 18.6829922690323009 48.0665275707987121 30.7064869118614752
6386 2 4.0 21.0183663026613381 48.0665275707987121 32.8998074055658662
6387 2 4.0 18.6829922690323009 44.8620923994121270 30.7064869118614752
6388 2 4.0 21.0183663026613381 44.8620923994121270 32.8998074055658662
6389 3 -2.0 20.8599800650696920 46.4643099851054160 33.4036543143608355
6390 3 -2.0 21.1767525402529841 49.6687451564920011 32.3959604967708898
6391 3 -2.0 18.8413785066239470 49.6687451564920011 31.2103338206564516
6392 3 -2.0 23.1953540986987328 46.4643099851054160 34.5892809904752880
6393 3 -2.0 19.5879070542778031 48.4331806019378206 33.7096529879158524
6394 3 -2.0 22.4488255510448731 47.6998745396595965 32.0899618232158801
6395 3 -2.0 20.1134515174158359 47.6998745396595965 31.5163324942114578
6396 3 -2.0 21.9232810879068403 48.4331806019378206 34.2832823169202712
6397 3 -2.0 22.4488255510448731 45.2287454305512426 32.0899618232158801
6398 3 -2.0 19.5879070542778031 50.9043097110461744 33.7096529879158524
6399 3 -2.0 21.9232810879068403 50.9043097110461744 34.2832823169202712
6400 3 -2.0 20.1134515174158359 45.2287454305512426 31.5163324942114578
6401 1 2.0 26.0357780135195007 1.6022175856932903 0.1019443853897463
6402 1 2.0 25.3424507263193277 4.8066527570798705 4.2846966020190349
6403 1 2.0 27.6778247599483649 4.8066527570798705 2.2952648790941383
6404 1 2.0 23.7004039798904635 1.6022175856932903 2.0913761083146447
6405 2 4.0 23.3537403362903753 3.2044351713865806 0.0000000000000000
6406 2 4.0 25.6891143699194124 3.2044351713865806 2.1933204937043911
6407 2 4.0 23.3537403362903753 0.0000000000000000 0.0000000000000000
6408 2 4.0 25.6891143699194124 0.0000000000000000 2.1933204937043911
6409 3 -2.0 25.5307281323277699 1.6022175856932903 2.6971674024993644
6410 3 -2.0 25.8475006075110585 4.8066527570798705 1.6894735849094176
6411 3 -2.0 23.5121265738820213 4.8066527570798705 0.5038469087949736
6412 3 -2.0 27.8661021659568071 1.6022175856932903 3.8827940786138089
6413 3 -2.0 24.2586551215358810 3.5710882025256927 3.0031660760543750
6414 3 -2.0 27.1195736183029474 2.8377821402474677 1.3834749113544080
6415 3 -2.0 24.7841995846739103 2.8377821402474677 0.8098455823499836
6416 3 -2.0 26.5940291551649182 3.5710882025256927 3.5767954050587982
6417 3 -2.0 27.1195736183029474 0.3666530311391118 1.3834749113544080
6418 3 -2.0 24.2586551215358810 6.0422173116340492 3.0031660760543750
6419 3 -2.0 26.5940291551649182 6.0422173116340492 3.5767954050587982
6420 3 -2.0 24.7841995846739103 0.3666530311391118 0.8098455823499836
6421 1 2.0 26.0357780135195007 1.6022175856932903 4.4885853727985285
6422 1 2.0 25.3424507263193277 4.8066527570798705 8.6713375894278162
6423 1 2.0 27.6778247599483649 4.8066527570798705 6.6819058665029205
6424 1 2.0 23.7004039798904635 1.6022175856932903 6.4780170957234269
6425 2 4.0 23.3537403362903753 3.2044351713865806 4.3866409874087822
6426 2 4.0 25.6891143699194124 3.2044351713865806 6.5799614811131732
6427 2 4.0 23.3537403362903753 0.0000000000000000 4.3866409874087822
6428 2 4.0 25.6891143699194124 0.0000000000000000 6.5799614811131732
6429 3 -2.0 25.5307281323277699 1.6022175856932903 7.0838083899081470
6430 3 -2.0 25.8475006075110585 4.8066527570798705 6.0761145723181995
6431 3 -2.0 23.5121265738820213 4.8066527570798705 4.8904878962037559
6432 3 -2.0 27.8661021659568071 1.6022175856932903 8.2694350660225915
6433 3 -2.0 24.2586551215358810 3.5710882025256927 7.3898070634631576
6434 3 -2.0 27.1195736183029474 2.8377821402474677 5.7701158987631906
6435 3 -2.0 24.7841995846739103 2.8377821402474677 5.1964865697587657
6436 3 -2.0 26.5940291551649182 3.5710882025256927 7.9634363924675799
6437 3 -2.0 27.1195736183029474 0.3666530311391118 5.7701158987631906
6438 3 -2.0 24.2586551215358810 6.0422173116340492 7.3898070634631576
6439 3 -2.0 26.5940291551649182 6.0422173116340492 7.9634363924675799
6440 3 -2.0 24.7841995846739103 0.3666530311391118 5.1964865697587657
6441 1 2.0 26.0357780135195007 1.6022175856932903 8.8752263602073107
6442 1 2.0 25.3424507263193277 4.8066527570798705 13.0579785768365984
6443 1 2.0 27.6778247599483649 4.8066527570798705 11.0685468539117036
6444 1 2.0 23.7004039798904635 1.6022175856932903 10.8646580831322090
6445 2 4.0 23.3537403362903753 3.2044351713865806 8.7732819748175643
6446 2 4.0 25.6891143699194124 3.2044351713865806 10.9666024685219554
6447 2 4.0 23.3537403362903753 0.0000000000000000 8.7732819748175643
6448 2 4.0 25.6891143699194124 0.0000000000000000 10.9666024685219554
6449 3 -2.0 25.5307281323277699 1.6022175856932903 11.4704493773169283
6450 3 -2.0 25.8475006075110585 4.8066527570798705 10.4627555597269826
6451 3 -2.0 23.5121265738820213 4.8066527570798705 9.2771288836125372
6452 3 -2.0 27.8661021659568071 1.6022175856932903 12.6560760534313737
6453 3 -2.0 24.2586551215358810 3.5710882025256927 11.7764480508719398
6454 3 -2.0 27.1195736183029474 2.8377821402474677 10.1567568861719728
6455 3 -2.0 24.7841995846739103 2.8377821402474677 9.5831275571675469
6456 3 -2.0 26.5940291551649182 3.5710882025256927 12.3500773798763621
6457 3 -2.0 27.1195736183029474 0.3666530311391118 10.1567568861719728
6458 3 -2.0 24.2586551215358810 6.0422173116340492 11.7764480508719398
6459 3 -2.0 26.5940291551649182 6.0422173116340492 12.3500773798763621
6460 3 -2.0 24.7841995846739103 0.3666530311391118 9.5831275571675469
6461 1 2.0 26.0357780135195007 1.6022175856932903 13.2618673476160929
6462 1 2.0 25.3424507263193277 4.8066527570798705 17.4446195642453823
6463 1 2.0 27.6778247599483649 4.8066527570798705 15.4551878413204857
6464 1 2.0 23.7004039798904635 1.6022175856932903 15.2512990705409912
6465 2 4.0 23.3537403362903753 3.2044351713865806 13.1599229622263465
6466 2 4.0 25.6891143699194124 3.2044351713865806 15.3532434559307376
6467 2 4.0 23.3537403362903753 0.0000000000000000 13.1599229622263465
6468 2 4.0 25.6891143699194124 0.0000000000000000 15.3532434559307376
6469 3 -2.0 25.5307281323277699 1.6022175856932903 15.8570903647257104
6470 3 -2.0 25.8475006075110585 4.8066527570798705 14.8493965471357647
6471 3 -2.0 23.5121265738820213 4.8066527570798705 13.6637698710213193
6472 3 -2.0 27.8661021659568071 1.6022175856932903 17.0427170408401558
6473 3 -2.0 24.2586551215358810 3.5710882025256927 16.1630890382807237
6474 3 -2.0 27.1195736183029474 2.8377821402474677 14.5433978735807550
6475 3 -2.0 24.7841995846739103 2.8377821402474677 13.9697685445763291
6476 3 -2.0 26.5940291551649182 3.5710882025256927 16.7367183672851425
6477 3 -2.0 27.1195736183029474 0.3666530311391118 14.5433978735807550
6478 3 -2.0 24.2586551215358810 6.0422173116340492 16.1630890382807237
6479 3 -2.0 26.5940291551649182 6.0422173116340492 16.7367183672851425
6480 3 -2.0 24.7841995846739103 0.3666530311391118 13.9697685445763291
6481 1 2.0 26.0357780135195007 1.6022175856932903 17.6485083350248750
6482 1 2.0 25.3424507263193277 4.8066527570798705 21.8312605516541645
6483 1 2.0 27.6778247599483649 4.8066527570798705 19.8418288287292661
6484 1 2.0 23.7004039798904635 1.6022175856932903 19.6379400579497734
6485 2 4.0 23.3537403362903753 3.2044351713865806 17.5465639496351287
6486 2 4.0 25.6891143699194124 3.2044351713865806 19.7398844433395197
6487 2 4.0 23.3537403362903753 0.0000000000000000 17.5465639496351287
6488 2 4.0 25.6891143699194124 0.0000000000000000 19.7398844433395197
6489 3 -2.0 25.5307281323277699 1.6022175856932903 20.2437313521344926
6490 3 -2.0 25.8475006075110585 4.8066527570798705 19.2360375345445433
6491 3 -2.0 23.5121265738820213 4.8066527570798705 18.0504108584301051
6492 3 -2.0 27.8661021659568071 1.6022175856932903 21.4293580282489380
6493 3 -2.0 24.2586551215358810 3.5710882025256927 20.5497300256895024
6494 3 -2.0 27.1195736183029474 2.8377821402474677 18.9300388609895371
6495 3 -2.0 24.7841995846739103 2.8377821402474677 18.3564095319851113
6496 3 -2.0 26.5940291551649182 3.5710882025256927 21.1233593546939282
6497 3 -2.0 27.1195736183029474 0.3666530311391118 18.9300388609895371
6498 3 -2.0 24.2586551215358810 6.0422173116340492 20.5497300256895024
6499 3 -2.0 26.5940291551649182 6.0422173116340492 21.1233593546939282
6500 3 -2.0 24.7841995846739103 0.3666530311391118 18.3564095319851113
6501 1 2.0 26.0357780135195007 1.6022175856932903 22.0351493224336572
6502 1 2.0 25.3424507263193277 4.8066527570798705 26.2179015390629466
6503 1 2.0 27.6778247599483649 4.8066527570798705 24.2284698161380483
6504 1 2.0 23.7004039798904635 1.6022175856932903 24.0245810453585555
6505 2 4.0 23.3537403362903753 3.2044351713865806 21.9332049370439108
6506 2 4.0 25.6891143699194124 3.2044351713865806 24.1265254307483019
6507 2 4.0 23.3537403362903753 0.0000000000000000 21.9332049370439108
6508 2 4.0 25.6891143699194124 0.0000000000000000 24.1265254307483019
6509 3 -2.0 25.5307281323277699 1.6022175856932903 24.6303723395432748
6510 3 -2.0 25.8475006075110585 4.8066527570798705 23.6226785219533255
6511 3 -2.0 23.5121265738820213 4.8066527570798705 22.4370518458388872
6512 3 -2.0 27.8661021659568071 1.6022175856932903 25.8159990156577202
6513 3 -2.0 24.2586551215358810 3.5710882025256927 24.9363710130982845
6514 3 -2.0 27.1195736183029474 2.8377821402474677 23.3166798483983193
6515 3 -2.0 24.7841995846739103 2.8377821402474677 22.7430505193938934
6516 3 -2.0 26.5940291551649182 3.5710882025256927 25.5100003421027104
6517 3 -2.0 27.1195736183029474 0.3666530311391118 23.3166798483983193
6518 3 -2.0 24.2586551215358810 6.0422173116340492 24.9363710130982845
6519 3 -2.0 26.5940291551649182 6.0422173116340492 25.5100003421027104
6520 3 -2.0 24.7841995846739103 0.3666530311391118 22.7430505193938934
6521 1 2.0 26.0357780135195007 1.6022175856932903 26.4217903098424394
6522 1 2.0 25.3424507263193277 4.8066527570798705 30.6045425264717288
6523 1 2.0 27.6778247599483649 4.8066527570798705 28.6151108035468305
6524 1 2.0 23.7004039798904635 1.6022175856932903 28.4112220327673377
6525 2 4.0 23.3537403362903753 3.2044351713865806 26.3198459244526930
6526 2 4.0 25.6891143699194124 3.2044351713865806 28.5131664181570841
6527 2 4.0 23.3537403362903753 0.0000000000000000 26.3198459244526930
6528 2 4.0 25.6891143699194124 0.0000000000000000 28.5131664181570841
6529 3 -2.0 25.5307281323277699 1.6022175856932903 29.0170133269520569
6530 3 -2.0 25.8475006075110585 4.8066527570798705 28.0093195093621077
6531 3 -2.0 23.5121265738820213 4.8066527570798705 26.8236928332476694
6532 3 -2.0 27.8661021659568071 1.6022175856932903 30.2026400030665023
6533 3 -2.0 24.2586551215358810 3.5710882025256927 29.3230120005070667
6534 3 -2.0 27.1195736183029474 2.8377821402474677 27.7033208358071015
6535 3 -2.0 24.7841995846739103 2.8377821402474677 27.1296915068026756
6536 3 -2.0 26.5940291551649182 3.5710882025256927 29.8966413295114926
6537 3 -2.0 27.1195736183029474 0.3666530311391118 27.7033208358071015
6538 3 -2.0 24.2586551215358810 6.0422173116340492 29.3230120005070667
6539 3 -2.0 26.5940291551649182 6.0422173116340492 29.8966413295114926
6540 3 -2.0 24.7841995846739103 0.3666530311391118 27.1296915068026756
6541 1 2.0 26.0357780135195007 1.6022175856932903 30.8084312972512215
6542 1 2.0 25.3424507263193277 4.8066527570798705 34.9911835138805074
6543 1 2.0 27.6778247599483649 4.8066527570798705 33.0017517909556162
6544 1 2.0 23.7004039798904635 1.6022175856932903 32.7978630201761163
6545 2 4.0 23.3537403362903753 3.2044351713865806 30.7064869118614752
6546 2 4.0 25.6891143699194124 3.2044351713865806 32.8998074055658662
6547 2 4.0 23.3537403362903753 0.0000000000000000 30.7064869118614752
6548 2 4.0 25.6891143699194124 0.0000000000000000 32.8998074055658662
6549 3 -2.0 25.5307281323277699 1.6022175856932903 33.4036543143608355
6550 3 -2.0 25.8475006075110585 4.8066527570798705 32.3959604967708898
6551 3 -2.0 23.5121265738820213 4.8066527570798705 31.2103338206564516
6552 3 -2.0 27.8661021659568071 1.6022175856932903 34.5892809904752880
6553 3 -2.0 24.2586551215358810 3.5710882025256927 33.7096529879158524
6554 3 -2.0 27.1195736183029474 2.8377821402474677 32.0899618232158801
6555 3 -2.0 24.7841995846739103 2.8377821402474677 31.5163324942114578
6556 3 -2.0 26.5940291551649182 3.5710882025256927 34.2832823169202712
6557 3 -2.0 27.1195736183029474 0.3666530311391118 32.0899618232158801
6558 3 -2.0 24.2586551215358810 6.0422173116340492 33.7096529879158524
6559 3 -2.0 26.5940291551649182 6.0422173116340492 34.2832823169202712
6560 3 -2.0 24.7841995846739103 0.3666530311391118 31.5163324942114578
6561 1 2.0 26.0357780135195007 8.0110879284664520 0.1019443853897463
6562 1 2.0 25.3424507263193277 11.2155230998530318 4.2846966020190349
6563 1 2.0 27.6778247599483649 11.2155230998530318 2.2952648790941383
6564 1 2.0 23.7004039798904635 8.0110879284664520 2.0913761083146447
6565 2 4.0 23.3537403362903753 9.6133055141597410 0.0000000000000000
6566 2 4.0 25.6891143699194124 9.6133055141597410 2.1933204937043911
6567 2 4.0 23.3537403362903753 6.4088703427731613 0.0000000000000000
6568 2 4.0 25.6891143699194124 6.4088703427731613 2.1933204937043911
6569 3 -2.0 25.5307281323277699 8.0110879284664520 2.6971674024993644
6570 3 -2.0 25.8475006075110585 11.2155230998530318 1.6894735849094176
6571 3 -2.0 23.5121265738820213 11.2155230998530318 0.5038469087949736
6572 3 -2.0 27.8661021659568071 8.0110879284664520 3.8827940786138089
6573 3 -2.0 24.2586551215358810 9.9799585452988531 3.0031660760543750
6574 3 -2.0 27.1195736183029474 9.2466524830206289 1.3834749113544080
6575 3 -2.0 24.7841995846739103 9.2466524830206289 0.8098455823499836
6576 3 -2.0 26.5940291551649182 9.9799585452988531 3.5767954050587982
6577 3 -2.0 27.1195736183029474 6.7755233739122724 1.3834749113544080
6578 3 -2.0 24.2586551215358810 12.4510876544072104 3.0031660760543750
6579 3 -2.0 26.5940291551649182 12.4510876544072104 3.5767954050587982
6580 3 -2.0 24.7841995846739103 6.7755233739122724 0.8098455823499836
6581 1 2.0 26.0357780135195007 8.0110879284664520 4.4885853727985285
6582 1 2.0 25.3424507263193277 11.2155230998530318 8.6713375894278162
6583 1 2.0 27.6778247599483649 11.2155230998530318 6.6819058665029205
6584 1 2.0 23.7004039798904635 8.0110879284664520 6.4780170957234269
6585 2 4.0 23.3537403362903753 9.6133055141597410 4.3866409874087822
6586 2 4.0 25.6891143699194124 9.6133055141597410 6.5799614811131732
6587 2 4.0 23.3537403362903753 6.4088703427731613 4.3866409874087822
6588 2 4.0 25.6891143699194124 6.4088703427731613 6.5799614811131732
6589 3 -2.0 25.5307281323277699 8.0110879284664520 7.0838083899081470
6590 3 -2.0 25.8475006075110585 11.2155230998530318 6.0761145723181995
6591 3 -2.0 23.5121265738820213 11.2155230998530318 4.8904878962037559
6592 3 -2.0 27.8661021659568071 8.0110879284664520 8.2694350660225915
6593 3 -2.0 24.2586551215358810 9.9799585452988531 7.3898070634631576
6594 3 -2.0 27.1195736183029474 9.2466524830206289 5.7701158987631906
6595 3 -2.0 24.7841995846739103 9.2466524830206289 5.1964865697587657
6596 3 -2.0 26.5940291551649182 9.9799585452988531 7.9634363924675799
6597 3 -2.0 27.1195736183029474 6.7755233739122724 5.7701158987631906
6598 3 -2.0 24.2586551215358810 12.4510876544072104 7.3898070634631576
6599 3 -2.0 26.5940291551649182 12.4510876544072104 7.9634363924675799
6600 3 -2.0 24.7841995846739103 6.7755233739122724 5.1964865697587657
6601 1 2.0 26.0357780135195007 8.0110879284664520 8.8752263602073107
6602 1 2.0 25.3424507263193277 11.2155230998530318 13.0579785768365984
6603 1 2.0 27.6778247599483649 11.2155230998530318 11.0685468539117036
6604 1 2.0 23.7004039798904635 8.0110879284664520 10.8646580831322090
6605 2 4.0 23.3537403362903753 9.6133055141597410 8.7732819748175643
6606 2 4.0 25.6891143699194124 9.6133055141597410 10.9666024685219554
6607 2 4.0 23.3537403362903753 6.4088703427731613 8.7732819748175643
6608 2 4.0 25.6891143699194124 6.4088703427731613 10.9666024685219554
6609 3 -2.0 25.5307281323277699 8.0110879284664520 11.4704493773169283
6610 3 -2.0 25.8475006075110585 11.2155230998530318 10.4627555597269826
6611 3 -2.0 23.5121265738820213 11.2155230998530318 9.2771288836125372
6612 3 -2.0 27.8661021659568071 8.0110879284664520 12.6560760534313737
6613 3 -2.0 24.2586551215358810 9.9799585452988531 11.7764480508719398
6614 3 -2.0 27.1195736183029474 9.2466524830206289 10.1567568861719728
6615 3 -2.0 24.7841995846739103 9.2466524830206289 9.5831275571675469
6616 3 -2.0 26.5940291551649182 9.9799585452988531 12.3500773798763621
6617 3 -2.0 27.1195736183029474 6.7755233739122724 10.1567568861719728
6618 3 -2.0 24.2586551215358810 12.4510876544072104 11.7764480508719398
6619 3 -2.0 26.5940291551649182 12.4510876544072104 12.3500773798763621
6620 3 -2.0 24.7841995846739103 6.7755233739122724 9.5831275571675469
6621 1 2.0 26.0357780135195007 8.0110879284664520 13.2618673476160929
6622 1 2.0 25.3424507263193277 11.2155230998530318 17.4446195642453823
6623 1 2.0 27.6778247599483649 11.2155230998530318 15.4551878413204857
6624 1 2.0 23.7004039798904635 8.0110879284664520 15.2512990705409912
6625 2 4.0 23.3537403362903753 9.6133055141597410 13.1599229622263465
6626 2 4.0 25.6891143699194124 9.6133055141597410 15.3532434559307376
6627 2 4.0 23.3537403362903753 6.4088703427731613 13.1599229622263465
6628 2 4.0 25.6891143699194124 6.4088703427731613 15.3532434559307376
6629 3 -2.0 25.5307281323277699 8.0110879284664520 15.8570903647257104
6630 3 -2.0 25.8475006075110585 11.2155230998530318 14.8493965471357647
6631 3 -2.0 23.5121265738820213 11.2155230998530318 13.6637698710213193
6632 3 -2.0 27.8661021659568071 8.0110879284664520 17.0427170408401558
6633 3 -2.0 24.2586551215358810 9.9799585452988531 16.1630890382807237
6634 3 -2.0 27.1195736183029474 9.2466524830206289 14.5433978735807550
6635 3 -2.0 24.7841995846739103 9.2466524830206289 13.9697685445763291
6636 3 -2.0 26.5940291551649182 9.9799585452988531 16.7367183672851425
6637 3 -2.0 27.1195736183029474 6.7755233739122724 14.5433978735807550
6638 3 -2.0 24.2586551215358810 12.4510876544072104 16.1630890382807237
6639 3 -2.0 26.5940291551649182 12.4510876544072104 16.7367183672851425
6640 3 -2.0 24.7841995846739103 6.7755233739122724 13.9697685445763291
6641 1 2.0 26.0357780135195007 8.0110879284664520 17.6485083350248750
6642 1 2.0 25.3424507263193277 11.2155230998530318 21.8312605516541645
6643 1 2.0 27.6778247599483649 11.2155230998530318 19.8418288287292661
6644 1 2.0 23.7004039798904635 8.0110879284664520 19.6379400579497734
6645 2 4.0 23.3537403362903753 9.6133055141597410 17.5465639496351287
6646 2 4.0 25.6891143699194124 9.6133055141597410 19.7398844433395197
6647 2 4.0 23.3537403362903753 6.4088703427731613 17.5465639496351287
6648 2 4.0 25.6891143699194124 6.4088703427731613 19.7398844433395197
6649 3 -2.0 25.5307281323277699 8.0110879284664520 20.2437313521344926
6650 3 -2.0 25.8475006075110585 11.2155230998530318 19.2360375345445433
6651 3 -2.0 23.5121265738820213 11.2155230998530318 18.0504108584301051
6652 3 -2.0 27.8661021659568071 8.0110879284664520 21.4293580282489380
6653 3 -2.0 24.2586551215358810 9.9799585452988531 20.5497300256895024
6654 3 -2.0 27.1195736183029474 9.2466524830206289 18.9300388609895371
6655 3 -2.0 24.7841995846739103 9.2466524830206289 18.3564095319851113
6656 3 -2.0 26.5940291551649182 9.9799585452988531 21.1233593546939282
6657 3 -2.0 27.1195736183029474 6.7755233739122724 18.9300388609895371
6658 3 -2.0 24.2586551215358810 12.4510876544072104 20.5497300256895024
6659 3 -2.0 26.5940291551649182 12.4510876544072104 21.1233593546939282
6660 3 -2.0 24.7841995846739103 6.7755233739122724 18.3564095319851113
6661 1 2.0 26.0357780135195007 8.0110879284664520 22.0351493224336572
6662 1 2.0 25.3424507263193277 11.2155230998530318 26.2179015390629466
6663 1 2.0 27.6778247599483649 11.2155230998530318 24.2284698161380483
6664 1 2.0 23.7004039798904635 8.0110879284664520 24.0245810453585555
6665 2 4.0 23.3537403362903753 9.6133055141597410 21.9332049370439108
6666 2 4.0 25.6891143699194124 9.6133055141597410 24.1265254307483019
6667 2 4.0 23.3537403362903753 6.4088703427731613 21.9332049370439108
6668 2 4.0 25.6891143699194124 6.4088703427731613 24.1265254307483019
6669 3 -2.0 25.5307281323277699 8.0110879284664520 24.6303723395432748
6670 3 -2.0 25.8475006075110585 11.2155230998530318 23.6226785219533255
6671 3 -2.0 23.5121265738820213 11.2155230998530318 22.4370518458388872
6672 3 -2.0 27.8661021659568071 8.0110879284664520 25.8159990156577202
6673 3 -2.0 24.2586551215358810 9.9799585452988531 24.9363710130982845
6674 3 -2.0 27.1195736183029474 9.2466524830206289 23.3166798483983193
6675 3 -2.0 24.7841995846739103 9.2466524830206289 22.7430505193938934
6676 3 -2.0 26.5940291551649182 9.9799585452988531 25.5100003421027104
6677 3 -2.0 27.1195736183029474 6.7755233739122724 23.3166798483983193
6678 3 -2.0 24.2586551215358810 12.4510876544072104 24.9363710130982845
6679 3 -2.0 26.5940291551649182 12.4510876544072104 25.5100003421027104
6680 3 -2.0 24.7841995846739103 6.7755233739122724 22.7430505193938934
6681 1 2.0 26.0357780135195007 8.0110879284664520 26.4217903098424394
6682 1 2.0 25.3424507263193277 11.2155230998530318 30.6045425264717288
6683 1 2.0 27.6778247599483649 11.2155230998530318 28.6151108035468305
6684 1 2.0 23.7004039798904635 8.0110879284664520 28.4112220327673377
6685 2 4.0 23.3537403362903753 9.6133055141597410 26.3198459244526930
6686 2 4.0 25.6891143699194124 9.6133055141597410 28.5131664181570841
6687 2 4.0 23.3537403362903753 6.4088703427731613 26.3198459244526930
6688 2 4.0 25.6891143699194124 6.4088703427731613 28.5131664181570841
6689 3 -2.0 25.5307281323277699 8.0110879284664520 29.0170133269520569
6690 3 -2.0 25.8475006075110585 11.2155230998530318 28.0093195093621077
6691 3 -2.0 23.5121265738820213 11.2155230998530318 26.8236928332476694
6692 3 -2.0 27.8661021659568071 8.0110879284664520 30.2026400030665023
6693 3 -2.0 24.2586551215358810 9.9799585452988531 29.3230120005070667
6694 3 -2.0 27.1195736183029474 9.2466524830206289 27.7033208358071015
6695 3 -2.0 24.7841995846739103 9.2466524830206289 27.1296915068026756
6696 3 -2.0 26.5940291551649182 9.9799585452988531 29.8966413295114926
6697 3 -2.0 27.1195736183029474 6.7755233739122724 27.7033208358071015
6698 3 -2.0 24.2586551215358810 12.4510876544072104 29.3230120005070667
6699 3 -2.0 26.5940291551649182 12.4510876544072104 29.8966413295114926
6700 3 -2.0 24.7841995846739103 6.7755233739122724 27.1296915068026756
6701 1 2.0 26.0357780135195007 8.0110879284664520 30.8084312972512215
6702 1 2.0 25.3424507263193277 11.2155230998530318 34.9911835138805074
6703 1 2.0 27.6778247599483649 11.2155230998530318 33.0017517909556162
6704 1 2.0 23.7004039798904635 8.0110879284664520 32.7978630201761163
6705 2 4.0 23.3537403362903753 9.6133055141597410 30.7064869118614752
6706 2 4.0 25.6891143699194124 9.6133055141597410 32.8998074055658662
6707 2 4.0 23.3537403362903753 6.4088703427731613 30.7064869118614752
6708 2 4.0 25.6891143699194124 6.4088703427731613 32.8998074055658662
6709 3 -2.0 25.5307281323277699 8.0110879284664520 33.4036543143608355
6710 3 -2.0 25.8475006075110585 11.2155230998530318 32.3959604967708898
6711 3 -2.0 23.5121265738820213 11.2155230998530318 31.2103338206564516
6712 3 -2.0 27.8661021659568071 8.0110879284664520 34.5892809904752880
6713 3 -2.0 24.2586551215358810 9.9799585452988531 33.7096529879158524
6714 3 -2.0 27.1195736183029474 9.2466524830206289 32.0899618232158801
6715 3 -2.0 24.7841995846739103 9.2466524830206289 31.5163324942114578
6716 3 -2.0 26.5940291551649182 9.9799585452988531 34.2832823169202712
6717 3 -2.0 27.1195736183029474 6.7755233739122724 32.0899618232158801
6718 3 -2.0 24.2586551215358810 12.4510876544072104 33.7096529879158524
6719 3 -2.0 26.5940291551649182 12.4510876544072104 34.2832823169202712
6720 3 -2.0 24.7841995846739103 6.7755233739122724 31.5163324942114578
6721 1 2.0 26.0357780135195007 14.4199582712396133 0.1019443853897463
6722 1 2.0 25.3424507263193277 17.6243934426261930 4.2846966020190349
6723 1 2.0 27.6778247599483649 17.6243934426261930 2.2952648790941383
6724 1 2.0 23.7004039798904635 14.4199582712396133 2.0913761083146447
6725 2 4.0 23.3537403362903753 16.0221758569329040 0.0000000000000000
6726 2 4.0 25.6891143699194124 16.0221758569329040 2.1933204937043911
6727 2 4.0 23.3537403362903753 12.8177406855463225 0.0000000000000000
6728 2 4.0 25.6891143699194124 12.8177406855463225 2.1933204937043911
6729 3 -2.0 25.5307281323277699 14.4199582712396133 2.6971674024993644
6730 3 -2.0 25.8475006075110585 17.6243934426261930 1.6894735849094176
6731 3 -2.0 23.5121265738820213 17.6243934426261930 0.5038469087949736
6732 3 -2.0 27.8661021659568071 14.4199582712396133 3.8827940786138089
6733 3 -2.0 24.2586551215358810 16.3888288880720161 3.0031660760543750
6734 3 -2.0 27.1195736183029474 15.6555228257937884 1.3834749113544080
6735 3 -2.0 24.7841995846739103 15.6555228257937884 0.8098455823499836
6736 3 -2.0 26.5940291551649182 16.3888288880720161 3.5767954050587982
6737 3 -2.0 27.1195736183029474 13.1843937166854346 1.3834749113544080
6738 3 -2.0 24.2586551215358810 18.8599579971803735 3.0031660760543750
6739 3 -2.0 26.5940291551649182 18.8599579971803735 3.5767954050587982
6740 3 -2.0 24.7841995846739103 13.1843937166854346 0.8098455823499836
6741 1 2.0 26.0357780135195007 14.4199582712396133 4.4885853727985285
6742 1 2.0 25.3424507263193277 17.6243934426261930 8.6713375894278162
6743 1 2.0 27.6778247599483649 17.6243934426261930 6.6819058665029205
6744 1 2.0 23.7004039798904635 14.4199582712396133 6.4780170957234269
6745 2 4.0 23.3537403362903753 16.0221758569329040 4.3866409874087822
6746 2 4.0 25.6891143699194124 16.0221758569329040 6.5799614811131732
6747 2 4.0 23.3537403362903753 12.8177406855463225 4.3866409874087822
6748 2 4.0 25.6891143699194124 12.8177406855463225 6.5799614811131732
6749 3 -2.0 25.5307281323277699 14.4199582712396133 7.0838083899081470
6750 3 -2.0 25.8475006075110585 17.6243934426261930 6.0761145723181995
6751 3 -2.0 23.5121265738820213 17.6243934426261930 4.8904878962037559
6752 3 -2.0 27.8661021659568071 14.4199582712396133 8.2694350660225915
6753 3 -2.0 24.2586551215358810 16.3888288880720161 7.3898070634631576
6754 3 -2.0 27.1195736183029474 15.6555228257937884 5.7701158987631906
6755 3 -2.0 24.7841995846739103 15.6555228257937884 5.1964865697587657
6756 3 -2.0 26.5940291551649182 16.3888288880720161 7.9634363924675799
6757 3 -2.0 27.1195736183029474 13.1843937166854346 5.7701158987631906
6758 3 -2.0 24.2586551215358810 18.8599579971803735 7.3898070634631576
6759 3 -2.0 26.5940291551649182 18.8599579971803735 7.9634363924675799
6760 3 -2.0 24.7841995846739103 13.1843937166854346 5.1964865697587657
6761 1 2.0 26.0357780135195007 14.4199582712396133 8.8752263602073107
6762 1 2.0 25.3424507263193277 17.6243934426261930 13.0579785768365984
6763 1 2.0 27.6778247599483649 17.6243934426261930 11.0685468539117036
6764 1 2.0 23.7004039798904635 14.4199582712396133 10.8646580831322090
6765 2 4.0 23.3537403362903753 16.0221758569329040 8.7732819748175643
6766 2 4.0 25.6891143699194124 16.0221758569329040 10.9666024685219554
6767 2 4.0 23.3537403362903753 12.8177406855463225 8.7732819748175643
6768 2 4.0 25.6891143699194124 12.8177406855463225 10.9666024685219554
6769 3 -2.0 25.5307281323277699 14.4199582712396133 11.4704493773169283
6770 3 -2.0 25.8475006075110585 17.6243934426261930 10.4627555597269826
6771 3 -2.0 23.5121265738820213 17.6243934426261930 9.2771288836125372
6772 3 -2.0 27.8661021659568071 14.4199582712396133 12.6560760534313737
6773 3 -2.0 24.2586551215358810 16.3888288880720161 11.7764480508719398
6774 3 -2.0 27.1195736183029474 15.6555228257937884 10.1567568861719728
6775 3 -2.0 24.7841995846739103 15.6555228257937884 9.5831275571675469
6776 3 -2.0 26.5940291551649182 16.3888288880720161 12.3500773798763621
6777 3 -2.0 27.1195736183029474 13.1843937166854346 10.1567568861719728
6778 3 -2.0 24.2586551215358810 18.8599579971803735 11.7764480508719398
6779 3 -2.0 26.5940291551649182 18.8599579971803735 12.3500773798763621
6780 3 -2.0 24.7841995846739103 13.1843937166854346 9.5831275571675469
6781 1 2.0 26.0357780135195007 14.4199582712396133 13.2618673476160929
6782 1 2.0 25.3424507263193277 17.6243934426261930 17.4446195642453823
6783 1 2.0 27.6778247599483649 17.6243934426261930 15.4551878413204857
6784 1 2.0 23.7004039798904635 14.4199582712396133 15.2512990705409912
6785 2 4.0 23.3537403362903753 16.0221758569329040 13.1599229622263465
6786 2 4.0 25.6891143699194124 16.0221758569329040 15.3532434559307376
6787 2 4.0 23.3537403362903753 12.8177406855463225 13.1599229622263465
6788 2 4.0 25.6891143699194124 12.8177406855463225 15.3532434559307376
6789 3 -2.0 25.5307281323277699 14.4199582712396133 15.8570903647257104
6790 3 -2.0 25.8475006075110585 17.6243934426261930 14.8493965471357647
6791 3 -2.0 23.5121265738820213 17.6243934426261930 13.6637698710213193
6792 3 -2.0 27.8661021659568071 14.4199582712396133 17.0427170408401558
6793 3 -2.0 24.2586551215358810 16.3888288880720161 16.1630890382807237
6794 3 -2.0 27.1195736183029474 15.6555228257937884 14.5433978735807550
6795 3 -2.0 24.7841995846739103 15.6555228257937884 13.9697685445763291
6796 3 -2.0 26.5940291551649182 16.3888288880720161 16.7367183672851425
6797 3 -2.0 27.1195736183029474 13.1843937166854346 14.5433978735807550
6798 3 -2.0 24.2586551215358810 18.8599579971803735 16.1630890382807237
6799 3 -2.0 26.5940291551649182 18.8599579971803735 16.7367183672851425
6800 3 -2.0 24.7841995846739103 13.1843937166854346 13.9697685445763291
6801 1 2.0 26.0357780135195007 14.4199582712396133 17.6485083350248750
6802 1 2.0 25.3424507263193277 17.6243934426261930 21.8312605516541645
6803 1 2.0 27.6778247599483649 17.6243934426261930 19.8418288287292661
6804 1 2.0 23.7004039798904635 14.4199582712396133 19.6379400579497734
6805 2 4.0 23.3537403362903753 16.0221758569329040 17.5465639496351287
6806 2 4.0 25.6891143699194124 16.0221758569329040 19.7398844433395197
6807 2 4.0 23.3537403362903753 12.8177406855463225 17.5465639496351287
6808 2 4.0 25.6891143699194124 12.8177406855463225 19.7398844433395197
6809 3 -2.0 25.5307281323277699 14.4199582712396133 20.2437313521344926
6810 3 -2.0 25.8475006075110585 17.6243934426261930 19.2360375345445433
6811 3 -2.0 23.5121265738820213 17.6243934426261930 18.0504108584301051
6812 3 -2.0 27.8661021659568071 14.4199582712396133 21.4293580282489380
6813 3 -2.0 24.2586551215358810 16.3888288880720161 20.5497300256895024
6814 3 -2.0 27.1195736183029474 15.6555228257937884 18.9300388609895371
6815 3 -2.0 24.7841995846739103 15.6555228257937884 18.3564095319851113
6816 3 -2.0 26.5940291551649182 16.3888288880720161 21.1233593546939282
6817 3 -2.0 27.1195736183029474 13.1843937166854346 18.9300388609895371
6818 3 -2.0 24.2586551215358810 18.8599579971803735 20.5497300256895024
6819 3 -2.0 26.5940291551649182 18.8599579971803735 21.1233593546939282
6820 3 -2.0 24.7841995846739103 13.1843937166854346 18.3564095319851113
6821 1 2.0 26.0357780135195007 14.4199582712396133 22.0351493224336572
6822 1 2.0 25.3424507263193277 17.6243934426261930 26.2179015390629466
6823 1 2.0 27.6778247599483649 17.6243934426261930 24.2284698161380483
6824 1 2.0 23.7004039798904635 14.4199582712396133 24.0245810453585555
6825 2 4.0 23.3537403362903753 16.0221758569329040 21.9332049370439108
6826 2 4.0 25.6891143699194124 16.0221758569329040 24.1265254307483019
6827 2 4.0 23.3537403362903753 12.8177406855463225 21.9332049370439108
6828 2 4.0 25.6891143699194124 12.8177406855463225 24.1265254307483019
6829 3 -2.0 25.5307281323277699 14.4199582712396133 24.6303723395432748
6830 3 -2.0 25.8475006075110585 17.6243934426261930 23.6226785219533255
6831 3 -2.0 23.5121265738820213 17.6243934426261930 22.4370518458388872
6832 3 -2.0 27.8661021659568071 14.4199582712396133 25.8159990156577202
6833 3 -2.0 24.2586551215358810 16.3888288880720161 24.9363710130982845
6834 3 -2.0 27.1195736183029474 15.6555228257937884 23.3166798483983193
6835 3 -2.0 24.7841995846739103 15.6555228257937884 22.7430505193938934
6836 3 -2.0 26.5940291551649182 16.3888288880720161 25.5100003421027104
6837 3 -2.0 27.1195736183029474 13.1843937166854346 23.3166798483983193
6838 3 -2.0 24.2586551215358810 18.8599579971803735 24.9363710130982845
6839 3 -2.0 26.5940291551649182 18.8599579971803735 25.5100003421027104
6840 3 -2.0 24.7841995846739103 13.1843937166854346 22.7430505193938934
6841 1 2.0 26.0357780135195007 14.4199582712396133 26.4217903098424394
6842 1 2.0 25.3424507263193277 17.6243934426261930 30.6045425264717288
6843 1 2.0 27.6778247599483649 17.6243934426261930 28.6151108035468305
6844 1 2.0 23.7004039798904635 14.4199582712396133 28.4112220327673377
6845 2 4.0 23.3537403362903753 16.0221758569329040 26.3198459244526930
6846 2 4.0 25.6891143699194124 16.0221758569329040 28.5131664181570841
6847 2 4.0 23.3537403362903753 12.8177406855463225 26.3198459244526930
6848 2 4.0 25.6891143699194124 12.8177406855463225 28.5131664181570841
6849 3 -2.0 25.5307281323277699 14.4199582712396133 29.0170133269520569
6850 3 -2.0 25.8475006075110585 17.6243934426261930 28.0093195093621077
6851 3 -2.0 23.5121265738820213 17.6243934426261930 26.8236928332476694
6852 3 -2.0 27.8661021659568071 14.4199582712396133 30.2026400030665023
6853 3 -2.0 24.2586551215358810 16.3888288880720161 29.3230120005070667
6854 3 -2.0 27.1195736183029474 15.6555228257937884 27.7033208358071015
6855 3 -2.0 24.7841995846739103 15.6555228257937884 27.1296915068026756
6856 3 -2.0 26.5940291551649182 16.3888288880720161 29.8966413295114926
6857 3 -2.0 27.1195736183029474 13.1843937166854346 27.7033208358071015
6858 3 -2.0 24.2586551215358810 18.8599579971803735 29.3230120005070667
6859 3 -2.0 26.5940291551649182 18.8599579971803735 29.8966413295114926
6860 3 -2.0 24.7841995846739103 13.1843937166854346 27.1296915068026756
6861 1 2.0 26.0357780135195007 14.4199582712396133 30.8084312972512215
6862 1 2.0 25.3424507263193277 17.6243934426261930 34.9911835138805074
6863 1 2.0 27.6778247599483649 17.6243934426261930 33.0017517909556162
6864 1 2.0 23.7004039798904635 14.4199582712396133 32.7978630201761163
6865 2 4.0 23.3537403362903753 16.0221758569329040 30.7064869118614752
6866 2 4.0 25.6891143699194124 16.0221758569329040 32.8998074055658662
6867 2 4.0 23.3537403362903753 12.8177406855463225 30.7064869118614752
6868 2 4.0 25.6891143699194124 12.8177406855463225 32.8998074055658662
6869 3 -2.0 25.5307281323277699 14.4199582712396133 33.4036543143608355
6870 3 -2.0 25.8475006075110585 17.6243934426261930 32.3959604967708898
6871 3 -2.0 23.5121265738820213 17.6243934426261930 31.2103338206564516
6872 3 -2.0 27.8661021659568071 14.4199582712396133 34.5892809904752880
6873 3 -2.0 24.2586551215358810 16.3888288880720161 33.7096529879158524
6874 3 -2.0 27.1195736183029474 15.6555228257937884 32.0899618232158801
6875 3 -2.0 24.7841995846739103 15.6555228257937884 31.5163324942114578
6876 3 -2.0 26.5940291551649182 16.3888288880720161 34.2832823169202712
6877 3 -2.0 27.1195736183029474 13.1843937166854346 32.0899618232158801
6878 3 -2.0 24.2586551215358810 18.8599579971803735 33.7096529879158524
6879 3 -2.0 26.5940291551649182 18.8599579971803735 34.2832823169202712
6880 3 -2.0 24.7841995846739103 13.1843937166854346 31.5163324942114578
6881 1 2.0 26.0357780135195007 20.8288286140127745 0.1019443853897463
6882 1 2.0 25.3424507263193277 24.0332637853993560 4.2846966020190349
6883 1 2.0 27.6778247599483649 24.0332637853993560 2.2952648790941383
6884 1 2.0 23.7004039798904635 20.8288286140127745 2.0913761083146447
6885 2 4.0 23.3537403362903753 22.4310461997060635 0.0000000000000000
6886 2 4.0 25.6891143699194124 22.4310461997060635 2.1933204937043911
6887 2 4.0 23.3537403362903753 19.2266110283194820 0.0000000000000000
6888 2 4.0 25.6891143699194124 19.2266110283194820 2.1933204937043911
6889 3 -2.0 25.5307281323277699 20.8288286140127745 2.6971674024993644
6890 3 -2.0 25.8475006075110585 24.0332637853993560 1.6894735849094176
6891 3 -2.0 23.5121265738820213 24.0332637853993560 0.5038469087949736
6892 3 -2.0 27.8661021659568071 20.8288286140127745 3.8827940786138089
6893 3 -2.0 24.2586551215358810 22.7976992308451756 3.0031660760543750
6894 3 -2.0 27.1195736183029474 22.0643931685669514 1.3834749113544080
6895 3 -2.0 24.7841995846739103 22.0643931685669514 0.8098455823499836
6896 3 -2.0 26.5940291551649182 22.7976992308451756 3.5767954050587982
6897 3 -2.0 27.1195736183029474 19.5932640594585941 1.3834749113544080
6898 3 -2.0 24.2586551215358810 25.2688283399535329 3.0031660760543750
6899 3 -2.0 26.5940291551649182 25.2688283399535329 3.5767954050587982
6900 3 -2.0 24.7841995846739103 19.5932640594585941 0.8098455823499836
6901 1 2.0 26.0357780135195007 20.8288286140127745 4.4885853727985285
6902 1 2.0 25.3424507263193277 24.0332637853993560 8.6713375894278162
6903 1 2.0 27.6778247599483649 24.0332637853993560 6.6819058665029205
6904 1 2.0 23.7004039798904635 20.8288286140127745 6.4780170957234269
6905 2 4.0 23.3537403362903753 22.4310461997060635 4.3866409874087822
6906 2 4.0 25.6891143699194124 22.4310461997060635 6.5799614811131732
6907 2 4.0 23.3537403362903753 19.2266110283194820 4.3866409874087822
6908 2 4.0 25.6891143699194124 19.2266110283194820 6.5799614811131732
6909 3 -2.0 25.5307281323277699 20.8288286140127745 7.0838083899081470
6910 3 -2.0 25.8475006075110585 24.0332637853993560 6.0761145723181995
6911 3 -2.0 23.5121265738820213 24.0332637853993560 4.8904878962037559
6912 3 -2.0 27.8661021659568071 20.8288286140127745 8.2694350660225915
6913 3 -2.0 24.2586551215358810 22.7976992308451756 7.3898070634631576
6914 3 -2.0 27.1195736183029474 22.0643931685669514 5.7701158987631906
6915 3 -2.0 24.7841995846739103 22.0643931685669514 5.1964865697587657
6916 3 -2.0 26.5940291551649182 22.7976992308451756 7.9634363924675799
6917 3 -2.0 27.1195736183029474 19.5932640594585941 5.7701158987631906
6918 3 -2.0 24.2586551215358810 25.2688283399535329 7.3898070634631576
6919 3 -2.0 26.5940291551649182 25.2688283399535329 7.9634363924675799
6920 3 -2.0 24.7841995846739103 19.5932640594585941 5.1964865697587657
6921 1 2.0 26.0357780135195007 20.8288286140127745 8.8752263602073107
6922 1 2.0 25.3424507263193277 24.0332637853993560 13.0579785768365984
6923 1 2.0 27.6778247599483649 24.0332637853993560 11.0685468539117036
6924 1 2.0 23.7004039798904635 20.8288286140127745 10.8646580831322090
6925 2 4.0 23.3537403362903753 22.4310461997060635 8.7732819748175643
6926 2 4.0 25.6891143699194124 22.4310461997060635 10.9666024685219554
6927 2 4.0 23.3537403362903753 19.2266110283194820 8.7732819748175643
6928 2 4.0 25.6891143699194124 19.2266110283194820 10.9666024685219554
6929 3 -2.0 25.5307281323277699 20.8288286140127745 11.4704493773169283
6930 3 -2.0 25.8475006075110585 24.0332637853993560 10.4627555597269826
6931 3 -2.0 23.5121265738820213 24.0332637853993560 9.2771288836125372
6932 3 -2.0 27.8661021659568071 20.8288286140127745 12.6560760534313737
6933 3 -2.0 24.2586551215358810 22.7976992308451756 11.7764480508719398
6934 3 -2.0 27.1195736183029474 22.0643931685669514 10.1567568861719728
6935 3 -2.0 24.7841995846739103 22.0643931685669514 9.5831275571675469
6936 3 -2.0 26.5940291551649182 22.7976992308451756 12.3500773798763621
6937 3 -2.0 27.1195736183029474 19.5932640594585941 10.1567568861719728
6938 3 -2.0 24.2586551215358810 25.2688283399535329 11.7764480508719398
6939 3 -2.0 26.5940291551649182 25.2688283399535329 12.3500773798763621
6940 3 -2.0 24.7841995846739103 19.5932640594585941 9.5831275571675469
6941 1 2.0 26.0357780135195007 20.8288286140127745 13.2618673476160929
6942 1 2.0 25.3424507263193277 24.0332637853993560 17.4446195642453823
6943 1 2.0 27.6778247599483649 24.0332637853993560 15.4551878413204857
6944 1 2.0 23.7004039798904635 20.8288286140127745 15.2512990705409912
6945 2 4.0 23.3537403362903753 22.4310461997060635 13.1599229622263465
6946 2 4.0 25.6891143699194124 22.4310461997060635 15.3532434559307376
6947 2 4.0 23.3537403362903753 19.2266110283194820 13.1599229622263465
6948 2 4.0 25.6891143699194124 19.2266110283194820 15.3532434559307376
6949 3 -2.0 25.5307281323277699 20.8288286140127745 15.8570903647257104
6950 3 -2.0 25.8475006075110585 24.0332637853993560 14.8493965471357647
6951 3 -2.0 23.5121265738820213 24.0332637853993560 13.6637698710213193
6952 3 -2.0 27.8661021659568071 20.8288286140127745 17.0427170408401558
6953 3 -2.0 24.2586551215358810 22.7976992308451756 16.1630890382807237
6954 3 -2.0 27.1195736183029474 22.0643931685669514 14.5433978735807550
6955 3 -2.0 24.7841995846739103 22.0643931685669514 13.9697685445763291
6956 3 -2.0 26.5940291551649182 22.7976992308451756 16.7367183672851425
6957 3 -2.0 27.1195736183029474 19.5932640594585941 14.5433978735807550
6958 3 -2.0 24.2586551215358810 25.2688283399535329 16.1630890382807237
6959 3 -2.0 26.5940291551649182 25.2688283399535329 16.7367183672851425
6960 3 -2.0 24.7841995846739103 19.5932640594585941 13.9697685445763291
6961 1 2.0 26.0357780135195007 20.8288286140127745 17.6485083350248750
6962 1 2.0 25.3424507263193277 24.0332637853993560 21.8312605516541645
6963 1 2.0 27.6778247599483649 24.0332637853993560 19.8418288287292661
6964 1 2.0 23.7004039798904635 20.8288286140127745 19.6379400579497734
6965 2 4.0 23.3537403362903753 22.4310461997060635 17.5465639496351287
6966 2 4.0 25.6891143699194124 22.4310461997060635 19.7398844433395197
6967 2 4.0 23.3537403362903753 19.2266110283194820 17.5465639496351287
6968 2 4.0 25.6891143699194124 19.2266110283194820 19.7398844433395197
6969 3 -2.0 25.5307281323277699 20.8288286140127745 20.2437313521344926
6970 3 -2.0 25.8475006075110585 24.0332637853993560 19.2360375345445433
6971 3 -2.0 23.5121265738820213 24.0332637853993560 18.0504108584301051
6972 3 -2.0 27.8661021659568071 20.8288286140127745 21.4293580282489380
6973 3 -2.0 24.2586551215358810 22.7976992308451756 20.5497300256895024
6974 3 -2.0 27.1195736183029474 22.0643931685669514 18.9300388609895371
6975 3 -2.0 24.7841995846739103 22.0643931685669514 18.3564095319851113
6976 3 -2.0 26.5940291551649182 22.7976992308451756 21.1233593546939282
6977 3 -2.0 27.1195736183029474 19.5932640594585941 18.9300388609895371
6978 3 -2.0 24.2586551215358810 25.2688283399535329 20.5497300256895024
6979 3 -2.0 26.5940291551649182 25.2688283399535329 21.1233593546939282
6980 3 -2.0 24.7841995846739103 19.5932640594585941 18.3564095319851113
6981 1 2.0 26.0357780135195007 20.8288286140127745 22.0351493224336572
6982 1 2.0 25.3424507263193277 24.0332637853993560 26.2179015390629466
6983 1 2.0 27.6778247599483649 24.0332637853993560 24.2284698161380483
6984 1 2.0 23.7004039798904635 20.8288286140127745 24.0245810453585555
6985 2 4.0 23.3537403362903753 22.4310461997060635 21.9332049370439108
6986 2 4.0 25.6891143699194124 22.4310461997060635 24.1265254307483019
6987 2 4.0 23.3537403362903753 19.2266110283194820 21.9332049370439108
6988 2 4.0 25.6891143699194124 19.2266110283194820 24.1265254307483019
6989 3 -2.0 25.5307281323277699 20.8288286140127745 24.6303723395432748
6990 3 -2.0 25.8475006075110585 24.0332637853993560 23.6226785219533255
6991 3 -2.0 23.5121265738820213 24.0332637853993560 22.4370518458388872
6992 3 -2.0 27.8661021659568071 20.8288286140127745 25.8159990156577202
6993 3 -2.0 24.2586551215358810 22.7976992308451756 24.9363710130982845
6994 3 -2.0 27.1195736183029474 22.0643931685669514 23.3166798483983193
6995 3 -2.0 24.7841995846739103 22.0643931685669514 22.7430505193938934
6996 3 -2.0 26.5940291551649182 22.7976992308451756 25.5100003421027104
6997 3 -2.0 27.1195736183029474 19.5932640594585941 23.3166798483983193
6998 3 -2.0 24.2586551215358810 25.2688283399535329 24.9363710130982845
6999 3 -2.0 26.5940291551649182 25.2688283399535329 25.5100003421027104
7000 3 -2.0 24.7841995846739103 19.5932640594585941 22.7430505193938934
7001 1 2.0 26.0357780135195007 20.8288286140127745 26.4217903098424394
7002 1 2.0 25.3424507263193277 24.0332637853993560 30.6045425264717288
7003 1 2.0 27.6778247599483649 24.0332637853993560 28.6151108035468305
7004 1 2.0 23.7004039798904635 20.8288286140127745 28.4112220327673377
7005 2 4.0 23.3537403362903753 22.4310461997060635 26.3198459244526930
7006 2 4.0 25.6891143699194124 22.4310461997060635 28.5131664181570841
7007 2 4.0 23.3537403362903753 19.2266110283194820 26.3198459244526930
7008 2 4.0 25.6891143699194124 19.2266110283194820 28.5131664181570841
7009 3 -2.0 25.5307281323277699 20.8288286140127745 29.0170133269520569
7010 3 -2.0 25.8475006075110585 24.0332637853993560 28.0093195093621077
7011 3 -2.0 23.5121265738820213 24.0332637853993560 26.8236928332476694
7012 3 -2.0 27.8661021659568071 20.8288286140127745 30.2026400030665023
7013 3 -2.0 24.2586551215358810 22.7976992308451756 29.3230120005070667
7014 3 -2.0 27.1195736183029474 22.0643931685669514 27.7033208358071015
7015 3 -2.0 24.7841995846739103 22.0643931685669514 27.1296915068026756
7016 3 -2.0 26.5940291551649182 22.7976992308451756 29.8966413295114926
7017 3 -2.0 27.1195736183029474 19.5932640594585941 27.7033208358071015
7018 3 -2.0 24.2586551215358810 25.2688283399535329 29.3230120005070667
7019 3 -2.0 26.5940291551649182 25.2688283399535329 29.8966413295114926
7020 3 -2.0 24.7841995846739103 19.5932640594585941 27.1296915068026756
7021 1 2.0 26.0357780135195007 20.8288286140127745 30.8084312972512215
7022 1 2.0 25.3424507263193277 24.0332637853993560 34.9911835138805074
7023 1 2.0 27.6778247599483649 24.0332637853993560 33.0017517909556162
7024 1 2.0 23.7004039798904635 20.8288286140127745 32.7978630201761163
7025 2 4.0 23.3537403362903753 22.4310461997060635 30.7064869118614752
7026 2 4.0 25.6891143699194124 22.4310461997060635 32.8998074055658662
7027 2 4.0 23.3537403362903753 19.2266110283194820 30.7064869118614752
7028 2 4.0 25.6891143699194124 19.2266110283194820 32.8998074055658662
7029 3 -2.0 25.5307281323277699 20.8288286140127745 33.4036543143608355
7030 3 -2.0 25.8475006075110585 24.0332637853993560 32.3959604967708898
7031 3 -2.0 23.5121265738820213 24.0332637853993560 31.2103338206564516
7032 3 -2.0 27.8661021659568071 20.8288286140127745 34.5892809904752880
7033 3 -2.0 24.2586551215358810 22.7976992308451756 33.7096529879158524
7034 3 -2.0 27.1195736183029474 22.0643931685669514 32.0899618232158801
7035 3 -2.0 24.7841995846739103 22.0643931685669514 31.5163324942114578
7036 3 -2.0 26.5940291551649182 22.7976992308451756 34.2832823169202712
7037 3 -2.0 27.1195736183029474 19.5932640594585941 32.0899618232158801
7038 3 -2.0 24.2586551215358810 25.2688283399535329 33.7096529879158524
7039 3 -2.0 26.5940291551649182 25.2688283399535329 34.2832823169202712
7040 3 -2.0 24.7841995846739103 19.5932640594585941 31.5163324942114578
7041 1 2.0 26.0357780135195007 27.2376989567859340 0.1019443853897463
7042 1 2.0 25.3424507263193277 30.4421341281725155 4.2846966020190349
7043 1 2.0 27.6778247599483649 30.4421341281725155 2.2952648790941383
7044 1 2.0 23.7004039798904635 27.2376989567859340 2.0913761083146447
7045 2 4.0 23.3537403362903753 28.8399165424792265 0.0000000000000000
7046 2 4.0 25.6891143699194124 28.8399165424792265 2.1933204937043911
7047 2 4.0 23.3537403362903753 25.6354813710926450 0.0000000000000000
7048 2 4.0 25.6891143699194124 25.6354813710926450 2.1933204937043911
7049 3 -2.0 25.5307281323277699 27.2376989567859340 2.6971674024993644
7050 3 -2.0 25.8475006075110585 30.4421341281725155 1.6894735849094176
7051 3 -2.0 23.5121265738820213 30.4421341281725155 0.5038469087949736
7052 3 -2.0 27.8661021659568071 27.2376989567859340 3.8827940786138089
7053 3 -2.0 24.2586551215358810 29.2065695736183386 3.0031660760543750
7054 3 -2.0 27.1195736183029474 28.4732635113401109 1.3834749113544080
7055 3 -2.0 24.7841995846739103 28.4732635113401109 0.8098455823499836
7056 3 -2.0 26.5940291551649182 29.2065695736183386 3.5767954050587982
7057 3 -2.0 27.1195736183029474 26.0021344022317606 1.3834749113544080
7058 3 -2.0 24.2586551215358810 31.6776986827266924 3.0031660760543750
7059 3 -2.0 26.5940291551649182 31.6776986827266924 3.5767954050587982
7060 3 -2.0 24.7841995846739103 26.0021344022317606 0.8098455823499836
7061 1 2.0 26.0357780135195007 27.2376989567859340 4.4885853727985285
7062 1 2.0 25.3424507263193277 30.4421341281725155 8.6713375894278162
7063 1 2.0 27.6778247599483649 30.4421341281725155 6.6819058665029205
7064 1 2.0 23.7004039798904635 27.2376989567859340 6.4780170957234269
7065 2 4.0 23.3537403362903753 28.8399165424792265 4.3866409874087822
7066 2 4.0 25.6891143699194124 28.8399165424792265 6.5799614811131732
7067 2 4.0 23.3537403362903753 25.6354813710926450 4.3866409874087822
7068 2 4.0 25.6891143699194124 25.6354813710926450 6.5799614811131732
7069 3 -2.0 25.5307281323277699 27.2376989567859340 7.0838083899081470
7070 3 -2.0 25.8475006075110585 30.4421341281725155 6.0761145723181995
7071 3 -2.0 23.5121265738820213 30.4421341281725155 4.8904878962037559
7072 3 -2.0 27.8661021659568071 27.2376989567859340 8.2694350660225915
7073 3 -2.0 24.2586551215358810 29.2065695736183386 7.3898070634631576
7074 3 -2.0 27.1195736183029474 28.4732635113401109 5.7701158987631906
7075 3 -2.0 24.7841995846739103 28.4732635113401109 5.1964865697587657
7076 3 -2.0 26.5940291551649182 29.2065695736183386 7.9634363924675799
7077 3 -2.0 27.1195736183029474 26.0021344022317606 5.7701158987631906
7078 3 -2.0 24.2586551215358810 31.6776986827266924 7.3898070634631576
7079 3 -2.0 26.5940291551649182 31.6776986827266924 7.9634363924675799
7080 3 -2.0 24.7841995846739103 26.0021344022317606 5.1964865697587657
7081 1 2.0 26.0357780135195007 27.2376989567859340 8.8752263602073107
7082 1 2.0 25.3424507263193277 30.4421341281725155 13.0579785768365984
7083 1 2.0 27.6778247599483649 30.4421341281725155 11.0685468539117036
7084 1 2.0 23.7004039798904635 27.2376989567859340 10.8646580831322090
7085 2 4.0 23.3537403362903753 28.8399165424792265 8.7732819748175643
7086 2 4.0 25.6891143699194124 28.8399165424792265 10.9666024685219554
7087 2 4.0 23.3537403362903753 25.6354813710926450 8.7732819748175643
7088 2 4.0 25.6891143699194124 25.6354813710926450 10.9666024685219554
7089 3 -2.0 25.5307281323277699 27.2376989567859340 11.4704493773169283
7090 3 -2.0 25.8475006075110585 30.4421341281725155 10.4627555597269826
7091 3 -2.0 23.5121265738820213 30.4421341281725155 9.2771288836125372
7092 3 -2.0 27.8661021659568071 27.2376989567859340 12.6560760534313737
7093 3 -2.0 24.2586551215358810 29.2065695736183386 11.7764480508719398
7094 3 -2.0 27.1195736183029474 28.4732635113401109 10.1567568861719728
7095 3 -2.0 24.7841995846739103 28.4732635113401109 9.5831275571675469
7096 3 -2.0 26.5940291551649182 29.2065695736183386 12.3500773798763621
7097 3 -2.0 27.1195736183029474 26.0021344022317606 10.1567568861719728
7098 3 -2.0 24.2586551215358810 31.6776986827266924 11.7764480508719398
7099 3 -2.0 26.5940291551649182 31.6776986827266924 12.3500773798763621
7100 3 -2.0 24.7841995846739103 26.0021344022317606 9.5831275571675469
7101 1 2.0 26.0357780135195007 27.2376989567859340 13.2618673476160929
7102 1 2.0 25.3424507263193277 30.4421341281725155 17.4446195642453823
7103 1 2.0 27.6778247599483649 30.4421341281725155 15.4551878413204857
7104 1 2.0 23.7004039798904635 27.2376989567859340 15.2512990705409912
7105 2 4.0 23.3537403362903753 28.8399165424792265 13.1599229622263465
7106 2 4.0 25.6891143699194124 28.8399165424792265 15.3532434559307376
7107 2 4.0 23.3537403362903753 25.6354813710926450 13.1599229622263465
7108 2 4.0 25.6891143699194124 25.6354813710926450 15.3532434559307376
7109 3 -2.0 25.5307281323277699 27.2376989567859340 15.8570903647257104
7110 3 -2.0 25.8475006075110585 30.4421341281725155 14.8493965471357647
7111 3 -2.0 23.5121265738820213 30.4421341281725155 13.6637698710213193
7112 3 -2.0 27.8661021659568071 27.2376989567859340 17.0427170408401558
7113 3 -2.0 24.2586551215358810 29.2065695736183386 16.1630890382807237
7114 3 -2.0 27.1195736183029474 28.4732635113401109 14.5433978735807550
7115 3 -2.0 24.7841995846739103 28.4732635113401109 13.9697685445763291
7116 3 -2.0 26.5940291551649182 29.2065695736183386 16.7367183672851425
7117 3 -2.0 27.1195736183029474 26.0021344022317606 14.5433978735807550
7118 3 -2.0 24.2586551215358810 31.6776986827266924 16.1630890382807237
7119 3 -2.0 26.5940291551649182 31.6776986827266924 16.7367183672851425
7120 3 -2.0 24.7841995846739103 26.0021344022317606 13.9697685445763291
7121 1 2.0 26.0357780135195007 27.2376989567859340 17.6485083350248750
7122 1 2.0 25.3424507263193277 30.4421341281725155 21.8312605516541645
7123 1 2.0 27.6778247599483649 30.4421341281725155 19.8418288287292661
7124 1 2.0 23.7004039798904635 27.2376989567859340 19.6379400579497734
7125 2 4.0 23.3537403362903753 28.8399165424792265 17.5465639496351287
7126 2 4.0 25.6891143699194124 28.8399165424792265 19.7398844433395197
7127 2 4.0 23.3537403362903753 25.6354813710926450 17.5465639496351287
7128 2 4.0 25.6891143699194124 25.6354813710926450 19.7398844433395197
7129 3 -2.0 25.5307281323277699 27.2376989567859340 20.2437313521344926
7130 3 -2.0 25.8475006075110585 30.4421341281725155 19.2360375345445433
7131 3 -2.0 23.5121265738820213 30.4421341281725155 18.0504108584301051
7132 3 -2.0 27.8661021659568071 27.2376989567859340 21.4293580282489380
7133 3 -2.0 24.2586551215358810 29.2065695736183386 20.5497300256895024
7134 3 -2.0 27.1195736183029474 28.4732635113401109 18.9300388609895371
7135 3 -2.0 24.7841995846739103 28.4732635113401109 18.3564095319851113
7136 3 -2.0 26.5940291551649182 29.2065695736183386 21.1233593546939282
7137 3 -2.0 27.1195736183029474 26.0021344022317606 18.9300388609895371
7138 3 -2.0 24.2586551215358810 31.6776986827266924 20.5497300256895024
7139 3 -2.0 26.5940291551649182 31.6776986827266924 21.1233593546939282
7140 3 -2.0 24.7841995846739103 26.0021344022317606 18.3564095319851113
7141 1 2.0 26.0357780135195007 27.2376989567859340 22.0351493224336572
7142 1 2.0 25.3424507263193277 30.4421341281725155 26.2179015390629466
7143 1 2.0 27.6778247599483649 30.4421341281725155 24.2284698161380483
7144 1 2.0 23.7004039798904635 27.2376989567859340 24.0245810453585555
7145 2 4.0 23.3537403362903753 28.8399165424792265 21.9332049370439108
7146 2 4.0 25.6891143699194124 28.8399165424792265 24.1265254307483019
7147 2 4.0 23.3537403362903753 25.6354813710926450 21.9332049370439108
7148 2 4.0 25.6891143699194124 25.6354813710926450 24.1265254307483019
7149 3 -2.0 25.5307281323277699 27.2376989567859340 24.6303723395432748
7150 3 -2.0 25.8475006075110585 30.4421341281725155 23.6226785219533255
7151 3 -2.0 23.5121265738820213 30.4421341281725155 22.4370518458388872
7152 3 -2.0 27.8661021659568071 27.2376989567859340 25.8159990156577202
7153 3 -2.0 24.2586551215358810 29.2065695736183386 24.9363710130982845
7154 3 -2.0 27.1195736183029474 28.4732635113401109 23.3166798483983193
7155 3 -2.0 24.7841995846739103 28.4732635113401109 22.7430505193938934
7156 3 -2.0 26.5940291551649182 29.2065695736183386 25.5100003421027104
7157 3 -2.0 27.1195736183029474 26.0021344022317606 23.3166798483983193
7158 3 -2.0 24.2586551215358810 31.6776986827266924 24.9363710130982845
7159 3 -2.0 26.5940291551649182 31.6776986827266924 25.5100003421027104
7160 3 -2.0 24.7841995846739103 26.0021344022317606 22.7430505193938934
7161 1 2.0 26.0357780135195007 27.2376989567859340 26.4217903098424394
7162 1 2.0 25.3424507263193277 30.4421341281725155 30.6045425264717288
7163 1 2.0 27.6778247599483649 30.4421341281725155 28.6151108035468305
7164 1 2.0 23.7004039798904635 27.2376989567859340 28.4112220327673377
7165 2 4.0 23.3537403362903753 28.8399165424792265 26.3198459244526930
7166 2 4.0 25.6891143699194124 28.8399165424792265 28.5131664181570841
7167 2 4.0 23.3537403362903753 25.6354813710926450 26.3198459244526930
7168 2 4.0 25.6891143699194124 25.6354813710926450 28.5131664181570841
7169 3 -2.0 25.5307281323277699 27.2376989567859340 29.0170133269520569
7170 3 -2.0 25.8475006075110585 30.4421341281725155 28.0093195093621077
7171 3 -2.0 23.5121265738820213 30.4421341281725155 26.8236928332476694
7172 3 -2.0 27.8661021659568071 27.2376989567859340 30.2026400030665023
7173 3 -2.0 24.2586551215358810 29.2065695736183386 29.3230120005070667
7174 3 -2.0 27.1195736183029474 28.4732635113401109 27.7033208358071015
7175 3 -2.0 24.7841995846739103 28.4732635113401109 27.1296915068026756
7176 3 -2.0 26.5940291551649182 29.2065695736183386 29.8966413295114926
7177 3 -2.0 27.1195736183029474 26.0021344022317606 27.7033208358071015
7178 3 -2.0 24.2586551215358810 31.6776986827266924 29.3230120005070667
7179 3 -2.0 26.5940291551649182 31.6776986827266924 29.8966413295114926
7180 3 -2.0 24.7841995846739103 26.0021344022317606 27.1296915068026756
7181 1 2.0 26.0357780135195007 27.2376989567859340 30.8084312972512215
7182 1 2.0 25.3424507263193277 30.4421341281725155 34.9911835138805074
7183 1 2.0 27.6778247599483649 30.4421341281725155 33.0017517909556162
7184 1 2.0 23.7004039798904635 27.2376989567859340 32.7978630201761163
7185 2 4.0 23.3537403362903753 28.8399165424792265 30.7064869118614752
7186 2 4.0 25.6891143699194124 28.8399165424792265 32.8998074055658662
7187 2 4.0 23.3537403362903753 25.6354813710926450 30.7064869118614752
7188 2 4.0 25.6891143699194124 25.6354813710926450 32.8998074055658662
7189 3 -2.0 25.5307281323277699 27.2376989567859340 33.4036543143608355
7190 3 -2.0 25.8475006075110585 30.4421341281725155 32.3959604967708898
7191 3 -2.0 23.5121265738820213 30.4421341281725155 31.2103338206564516
7192 3 -2.0 27.8661021659568071 27.2376989567859340 34.5892809904752880
7193 3 -2.0 24.2586551215358810 29.2065695736183386 33.7096529879158524
7194 3 -2.0 27.1195736183029474 28.4732635113401109 32.0899618232158801
7195 3 -2.0 24.7841995846739103 28.4732635113401109 31.5163324942114578
7196 3 -2.0 26.5940291551649182 29.2065695736183386 34.2832823169202712
7197 3 -2.0 27.1195736183029474 26.0021344022317606 32.0899618232158801
7198 3 -2.0 24.2586551215358810 31.6776986827266924 33.7096529879158524
7199 3 -2.0 26.5940291551649182 31.6776986827266924 34.2832823169202712
7200 3 -2.0 24.7841995846739103 26.0021344022317606 31.5163324942114578
7201 1 2.0 26.0357780135195007 33.6465692995590970 0.1019443853897463
7202 1 2.0 25.3424507263193277 36.8510044709456750 4.2846966020190349
7203 1 2.0 27.6778247599483649 36.8510044709456750 2.2952648790941383
7204 1 2.0 23.7004039798904635 33.6465692995590970 2.0913761083146447
7205 2 4.0 23.3537403362903753 35.2487868852523860 0.0000000000000000
7206 2 4.0 25.6891143699194124 35.2487868852523860 2.1933204937043911
7207 2 4.0 23.3537403362903753 32.0443517138658081 0.0000000000000000
7208 2 4.0 25.6891143699194124 32.0443517138658081 2.1933204937043911
7209 3 -2.0 25.5307281323277699 33.6465692995590970 2.6971674024993644
7210 3 -2.0 25.8475006075110585 36.8510044709456750 1.6894735849094176
7211 3 -2.0 23.5121265738820213 36.8510044709456750 0.5038469087949736
7212 3 -2.0 27.8661021659568071 33.6465692995590970 3.8827940786138089
7213 3 -2.0 24.2586551215358810 35.6154399163915016 3.0031660760543750
7214 3 -2.0 27.1195736183029474 34.8821338541132704 1.3834749113544080
7215 3 -2.0 24.7841995846739103 34.8821338541132704 0.8098455823499836
7216 3 -2.0 26.5940291551649182 35.6154399163915016 3.5767954050587982
7217 3 -2.0 27.1195736183029474 32.4110047450049237 1.3834749113544080
7218 3 -2.0 24.2586551215358810 38.0865690254998555 3.0031660760543750
7219 3 -2.0 26.5940291551649182 38.0865690254998555 3.5767954050587982
7220 3 -2.0 24.7841995846739103 32.4110047450049237 0.8098455823499836
7221 1 2.0 26.0357780135195007 33.6465692995590970 4.4885853727985285
7222 1 2.0 25.3424507263193277 36.8510044709456750 8.6713375894278162
7223 1 2.0 27.6778247599483649 36.8510044709456750 6.6819058665029205
7224 1 2.0 23.7004039798904635 33.6465692995590970 6.4780170957234269
7225 2 4.0 23.3537403362903753 35.2487868852523860 4.3866409874087822
7226 2 4.0 25.6891143699194124 35.2487868852523860 6.5799614811131732
7227 2 4.0 23.3537403362903753 32.0443517138658081 4.3866409874087822
7228 2 4.0 25.6891143699194124 32.0443517138658081 6.5799614811131732
7229 3 -2.0 25.5307281323277699 33.6465692995590970 7.0838083899081470
7230 3 -2.0 25.8475006075110585 36.8510044709456750 6.0761145723181995
7231 3 -2.0 23.5121265738820213 36.8510044709456750 4.8904878962037559
7232 3 -2.0 27.8661021659568071 33.6465692995590970 8.2694350660225915
7233 3 -2.0 24.2586551215358810 35.6154399163915016 7.3898070634631576
7234 3 -2.0 27.1195736183029474 34.8821338541132704 5.7701158987631906
7235 3 -2.0 24.7841995846739103 34.8821338541132704 5.1964865697587657
7236 3 -2.0 26.5940291551649182 35.6154399163915016 7.9634363924675799
7237 3 -2.0 27.1195736183029474 32.4110047450049237 5.7701158987631906
7238 3 -2.0 24.2586551215358810 38.0865690254998555 7.3898070634631576
7239 3 -2.0 26.5940291551649182 38.0865690254998555 7.9634363924675799
7240 3 -2.0 24.7841995846739103 32.4110047450049237 5.1964865697587657
7241 1 2.0 26.0357780135195007 33.6465692995590970 8.8752263602073107
7242 1 2.0 25.3424507263193277 36.8510044709456750 13.0579785768365984
7243 1 2.0 27.6778247599483649 36.8510044709456750 11.0685468539117036
7244 1 2.0 23.7004039798904635 33.6465692995590970 10.8646580831322090
7245 2 4.0 23.3537403362903753 35.2487868852523860 8.7732819748175643
7246 2 4.0 25.6891143699194124 35.2487868852523860 10.9666024685219554
7247 2 4.0 23.3537403362903753 32.0443517138658081 8.7732819748175643
7248 2 4.0 25.6891143699194124 32.0443517138658081 10.9666024685219554
7249 3 -2.0 25.5307281323277699 33.6465692995590970 11.4704493773169283
7250 3 -2.0 25.8475006075110585 36.8510044709456750 10.4627555597269826
7251 3 -2.0 23.5121265738820213 36.8510044709456750 9.2771288836125372
7252 3 -2.0 27.8661021659568071 33.6465692995590970 12.6560760534313737
7253 3 -2.0 24.2586551215358810 35.6154399163915016 11.7764480508719398
7254 3 -2.0 27.1195736183029474 34.8821338541132704 10.1567568861719728
7255 3 -2.0 24.7841995846739103 34.8821338541132704 9.5831275571675469
7256 3 -2.0 26.5940291551649182 35.6154399163915016 12.3500773798763621
7257 3 -2.0 27.1195736183029474 32.4110047450049237 10.1567568861719728
7258 3 -2.0 24.2586551215358810 38.0865690254998555 11.7764480508719398
7259 3 -2.0 26.5940291551649182 38.0865690254998555 12.3500773798763621
7260 3 -2.0 24.7841995846739103 32.4110047450049237 9.5831275571675469
7261 1 2.0 26.0357780135195007 33.6465692995590970 13.2618673476160929
7262 1 2.0 25.3424507263193277 36.8510044709456750 17.4446195642453823
7263 1 2.0 27.6778247599483649 36.8510044709456750 15.4551878413204857
7264 1 2.0 23.7004039798904635 33.6465692995590970 15.2512990705409912
7265 2 4.0 23.3537403362903753 35.2487868852523860 13.1599229622263465
7266 2 4.0 25.6891143699194124 35.2487868852523860 15.3532434559307376
7267 2 4.0 23.3537403362903753 32.0443517138658081 13.1599229622263465
7268 2 4.0 25.6891143699194124 32.0443517138658081 15.3532434559307376
7269 3 -2.0 25.5307281323277699 33.6465692995590970 15.8570903647257104
7270 3 -2.0 25.8475006075110585 36.8510044709456750 14.8493965471357647
7271 3 -2.0 23.5121265738820213 36.8510044709456750 13.6637698710213193
7272 3 -2.0 27.8661021659568071 33.6465692995590970 17.0427170408401558
7273 3 -2.0 24.2586551215358810 35.6154399163915016 16.1630890382807237
7274 3 -2.0 27.1195736183029474 34.8821338541132704 14.5433978735807550
7275 3 -2.0 24.7841995846739103 34.8821338541132704 13.9697685445763291
7276 3 -2.0 26.5940291551649182 35.6154399163915016 16.7367183672851425
7277 3 -2.0 27.1195736183029474 32.4110047450049237 14.5433978735807550
7278 3 -2.0 24.2586551215358810 38.0865690254998555 16.1630890382807237
7279 3 -2.0 26.5940291551649182 38.0865690254998555 16.7367183672851425
7280 3 -2.0 24.7841995846739103 32.4110047450049237 13.9697685445763291
7281 1 2.0 26.0357780135195007 33.6465692995590970 17.6485083350248750
7282 1 2.0 25.3424507263193277 36.8510044709456750 21.8312605516541645
7283 1 2.0 27.6778247599483649 36.8510044709456750 19.8418288287292661
7284 1 2.0 23.7004039798904635 33.6465692995590970 19.6379400579497734
7285 2 4.0 23.3537403362903753 35.2487868852523860 17.5465639496351287
7286 2 4.0 25.6891143699194124 35.2487868852523860 19.7398844433395197
7287 2 4.0 23.3537403362903753 32.0443517138658081 17.5465639496351287
7288 2 4.0 25.6891143699194124 32.0443517138658081 19.7398844433395197
7289 3 -2.0 25.5307281323277699 33.6465692995590970 20.2437313521344926
7290 3 -2.0 25.8475006075110585 36.8510044709456750 19.2360375345445433
7291 3 -2.0 23.5121265738820213 36.8510044709456750 18.0504108584301051
7292 3 -2.0 27.8661021659568071 33.6465692995590970 21.4293580282489380
7293 3 -2.0 24.2586551215358810 35.6154399163915016 20.5497300256895024
7294 3 -2.0 27.1195736183029474 34.8821338541132704 18.9300388609895371
7295 3 -2.0 24.7841995846739103 34.8821338541132704 18.3564095319851113
7296 3 -2.0 26.5940291551649182 35.6154399163915016 21.1233593546939282
7297 3 -2.0 27.1195736183029474 32.4110047450049237 18.9300388609895371
7298 3 -2.0 24.2586551215358810 38.0865690254998555 20.5497300256895024
7299 3 -2.0 26.5940291551649182 38.0865690254998555 21.1233593546939282
7300 3 -2.0 24.7841995846739103 32.4110047450049237 18.3564095319851113
7301 1 2.0 26.0357780135195007 33.6465692995590970 22.0351493224336572
7302 1 2.0 25.3424507263193277 36.8510044709456750 26.2179015390629466
7303 1 2.0 27.6778247599483649 36.8510044709456750 24.2284698161380483
7304 1 2.0 23.7004039798904635 33.6465692995590970 24.0245810453585555
7305 2 4.0 23.3537403362903753 35.2487868852523860 21.9332049370439108
7306 2 4.0 25.6891143699194124 35.2487868852523860 24.1265254307483019
7307 2 4.0 23.3537403362903753 32.0443517138658081 21.9332049370439108
7308 2 4.0 25.6891143699194124 32.0443517138658081 24.1265254307483019
7309 3 -2.0 25.5307281323277699 33.6465692995590970 24.6303723395432748
7310 3 -2.0 25.8475006075110585 36.8510044709456750 23.6226785219533255
7311 3 -2.0 23.5121265738820213 36.8510044709456750 22.4370518458388872
7312 3 -2.0 27.8661021659568071 33.6465692995590970 25.8159990156577202
7313 3 -2.0 24.2586551215358810 35.6154399163915016 24.9363710130982845
7314 3 -2.0 27.1195736183029474 34.8821338541132704 23.3166798483983193
7315 3 -2.0 24.7841995846739103 34.8821338541132704 22.7430505193938934
7316 3 -2.0 26.5940291551649182 35.6154399163915016 25.5100003421027104
7317 3 -2.0 27.1195736183029474 32.4110047450049237 23.3166798483983193
7318 3 -2.0 24.2586551215358810 38.0865690254998555 24.9363710130982845
7319 3 -2.0 26.5940291551649182 38.0865690254998555 25.5100003421027104
7320 3 -2.0 24.7841995846739103 32.4110047450049237 22.7430505193938934
7321 1 2.0 26.0357780135195007 33.6465692995590970 26.4217903098424394
7322 1 2.0 25.3424507263193277 36.8510044709456750 30.6045425264717288
7323 1 2.0 27.6778247599483649 36.8510044709456750 28.6151108035468305
7324 1 2.0 23.7004039798904635 33.6465692995590970 28.4112220327673377
7325 2 4.0 23.3537403362903753 35.2487868852523860 26.3198459244526930
7326 2 4.0 25.6891143699194124 35.2487868852523860 28.5131664181570841
7327 2 4.0 23.3537403362903753 32.0443517138658081 26.3198459244526930
7328 2 4.0 25.6891143699194124 32.0443517138658081 28.5131664181570841
7329 3 -2.0 25.5307281323277699 33.6465692995590970 29.0170133269520569
7330 3 -2.0 25.8475006075110585 36.8510044709456750 28.0093195093621077
7331 3 -2.0 23.5121265738820213 36.8510044709456750 26.8236928332476694
7332 3 -2.0 27.8661021659568071 33.6465692995590970 30.2026400030665023
7333 3 -2.0 24.2586551215358810 35.6154399163915016 29.3230120005070667
7334 3 -2.0 27.1195736183029474 34.8821338541132704 27.7033208358071015
7335 3 -2.0 24.7841995846739103 34.8821338541132704 27.1296915068026756
7336 3 -2.0 26.5940291551649182 35.6154399163915016 29.8966413295114926
7337 3 -2.0 27.1195736183029474 32.4110047450049237 27.7033208358071015
7338 3 -2.0 24.2586551215358810 38.0865690254998555 29.3230120005070667
7339 3 -2.0 26.5940291551649182 38.0865690254998555 29.8966413295114926
7340 3 -2.0 24.7841995846739103 32.4110047450049237 27.1296915068026756
7341 1 2.0 26.0357780135195007 33.6465692995590970 30.8084312972512215
7342 1 2.0 25.3424507263193277 36.8510044709456750 34.9911835138805074
7343 1 2.0 27.6778247599483649 36.8510044709456750 33.0017517909556162
7344 1 2.0 23.7004039798904635 33.6465692995590970 32.7978630201761163
7345 2 4.0 23.3537403362903753 35.2487868852523860 30.7064869118614752
7346 2 4.0 25.6891143699194124 35.2487868852523860 32.8998074055658662
7347 2 4.0 23.3537403362903753 32.0443517138658081 30.7064869118614752
7348 2 4.0 25.6891143699194124 32.0443517138658081 32.8998074055658662
7349 3 -2.0 25.5307281323277699 33.6465692995590970 33.4036543143608355
7350 3 -2.0 25.8475006075110585 36.8510044709456750 32.3959604967708898
7351 3 -2.0 23.5121265738820213 36.8510044709456750 31.2103338206564516
7352 3 -2.0 27.8661021659568071 33.6465692995590970 34.5892809904752880
7353 3 -2.0 24.2586551215358810 35.6154399163915016 33.7096529879158524
7354 3 -2.0 27.1195736183029474 34.8821338541132704 32.0899618232158801
7355 3 -2.0 24.7841995846739103 34.8821338541132704 31.5163324942114578
7356 3 -2.0 26.5940291551649182 35.6154399163915016 34.2832823169202712
7357 3 -2.0 27.1195736183029474 32.4110047450049237 32.0899618232158801
7358 3 -2.0 24.2586551215358810 38.0865690254998555 33.7096529879158524
7359 3 -2.0 26.5940291551649182 38.0865690254998555 34.2832823169202712
7360 3 -2.0 24.7841995846739103 32.4110047450049237 31.5163324942114578
7361 1 2.0 26.0357780135195007 40.0554396423322601 0.1019443853897463
7362 1 2.0 25.3424507263193277 43.2598748137188380 4.2846966020190349
7363 1 2.0 27.6778247599483649 43.2598748137188380 2.2952648790941383
7364 1 2.0 23.7004039798904635 40.0554396423322601 2.0913761083146447
7365 2 4.0 23.3537403362903753 41.6576572280255490 0.0000000000000000
7366 2 4.0 25.6891143699194124 41.6576572280255490 2.1933204937043911
7367 2 4.0 23.3537403362903753 38.4532220566389640 0.0000000000000000
7368 2 4.0 25.6891143699194124 38.4532220566389640 2.1933204937043911
7369 3 -2.0 25.5307281323277699 40.0554396423322601 2.6971674024993644
7370 3 -2.0 25.8475006075110585 43.2598748137188380 1.6894735849094176
7371 3 -2.0 23.5121265738820213 43.2598748137188380 0.5038469087949736
7372 3 -2.0 27.8661021659568071 40.0554396423322601 3.8827940786138089
7373 3 -2.0 24.2586551215358810 42.0243102591646647 3.0031660760543750
7374 3 -2.0 27.1195736183029474 41.2910041968864334 1.3834749113544080
7375 3 -2.0 24.7841995846739103 41.2910041968864334 0.8098455823499836
7376 3 -2.0 26.5940291551649182 42.0243102591646647 3.5767954050587982
7377 3 -2.0 27.1195736183029474 38.8198750877780796 1.3834749113544080
7378 3 -2.0 24.2586551215358810 44.4954393682730114 3.0031660760543750
7379 3 -2.0 26.5940291551649182 44.4954393682730114 3.5767954050587982
7380 3 -2.0 24.7841995846739103 38.8198750877780796 0.8098455823499836
7381 1 2.0 26.0357780135195007 40.0554396423322601 4.4885853727985285
7382 1 2.0 25.3424507263193277 43.2598748137188380 8.6713375894278162
7383 1 2.0 27.6778247599483649 43.2598748137188380 6.6819058665029205
7384 1 2.0 23.7004039798904635 40.0554396423322601 6.4780170957234269
7385 2 4.0 23.3537403362903753 41.6576572280255490 4.3866409874087822
7386 2 4.0 25.6891143699194124 41.6576572280255490 6.5799614811131732
7387 2 4.0 23.3537403362903753 38.4532220566389640 4.3866409874087822
7388 2 4.0 25.6891143699194124 38.4532220566389640 6.5799614811131732
7389 3 -2.0 25.5307281323277699 40.0554396423322601 7.0838083899081470
7390 3 -2.0 25.8475006075110585 43.2598748137188380 6.0761145723181995
7391 3 -2.0 23.5121265738820213 43.2598748137188380 4.8904878962037559
7392 3 -2.0 27.8661021659568071 40.0554396423322601 8.2694350660225915
7393 3 -2.0 24.2586551215358810 42.0243102591646647 7.3898070634631576
7394 3 -2.0 27.1195736183029474 41.2910041968864334 5.7701158987631906
7395 3 -2.0 24.7841995846739103 41.2910041968864334 5.1964865697587657
7396 3 -2.0 26.5940291551649182 42.0243102591646647 7.9634363924675799
7397 3 -2.0 27.1195736183029474 38.8198750877780796 5.7701158987631906
7398 3 -2.0 24.2586551215358810 44.4954393682730114 7.3898070634631576
7399 3 -2.0 26.5940291551649182 44.4954393682730114 7.9634363924675799
7400 3 -2.0 24.7841995846739103 38.8198750877780796 5.1964865697587657
7401 1 2.0 26.0357780135195007 40.0554396423322601 8.8752263602073107
7402 1 2.0 25.3424507263193277 43.2598748137188380 13.0579785768365984
7403 1 2.0 27.6778247599483649 43.2598748137188380 11.0685468539117036
7404 1 2.0 23.7004039798904635 40.0554396423322601 10.8646580831322090
7405 2 4.0 23.3537403362903753 41.6576572280255490 8.7732819748175643
7406 2 4.0 25.6891143699194124 41.6576572280255490 10.9666024685219554
7407 2 4.0 23.3537403362903753 38.4532220566389640 8.7732819748175643
7408 2 4.0 25.6891143699194124 38.4532220566389640 10.9666024685219554
7409 3 -2.0 25.5307281323277699 40.0554396423322601 11.4704493773169283
7410 3 -2.0 25.8475006075110585 43.2598748137188380 10.4627555597269826
7411 3 -2.0 23.5121265738820213 43.2598748137188380 9.2771288836125372
7412 3 -2.0 27.8661021659568071 40.0554396423322601 12.6560760534313737
7413 3 -2.0 24.2586551215358810 42.0243102591646647 11.7764480508719398
7414 3 -2.0 27.1195736183029474 41.2910041968864334 10.1567568861719728
7415 3 -2.0 24.7841995846739103 41.2910041968864334 9.5831275571675469
7416 3 -2.0 26.5940291551649182 42.0243102591646647 12.3500773798763621
7417 3 -2.0 27.1195736183029474 38.8198750877780796 10.1567568861719728
7418 3 -2.0 24.2586551215358810 44.4954393682730114 11.7764480508719398
7419 3 -2.0 26.5940291551649182 44.4954393682730114 12.3500773798763621
7420 3 -2.0 24.7841995846739103 38.8198750877780796 9.5831275571675469
7421 1 2.0 26.0357780135195007 40.0554396423322601 13.2618673476160929
7422 1 2.0 25.3424507263193277 43.2598748137188380 17.4446195642453823
7423 1 2.0 27.6778247599483649 43.2598748137188380 15.4551878413204857
7424 1 2.0 23.7004039798904635 40.0554396423322601 15.2512990705409912
7425 2 4.0 23.3537403362903753 41.6576572280255490 13.1599229622263465
7426 2 4.0 25.6891143699194124 41.6576572280255490 15.3532434559307376
7427 2 4.0 23.3537403362903753 38.4532220566389640 13.1599229622263465
7428 2 4.0 25.6891143699194124 38.4532220566389640 15.3532434559307376
7429 3 -2.0 25.5307281323277699 40.0554396423322601 15.8570903647257104
7430 3 -2.0 25.8475006075110585 43.2598748137188380 14.8493965471357647
7431 3 -2.0 23.5121265738820213 43.2598748137188380 13.6637698710213193
7432 3 -2.0 27.8661021659568071 40.0554396423322601 17.0427170408401558
7433 3 -2.0 24.2586551215358810 42.0243102591646647 16.1630890382807237
7434 3 -2.0 27.1195736183029474 41.2910041968864334 14.5433978735807550
7435 3 -2.0 24.7841995846739103 41.2910041968864334 13.9697685445763291
7436 3 -2.0 26.5940291551649182 42.0243102591646647 16.7367183672851425
7437 3 -2.0 27.1195736183029474 38.8198750877780796 14.5433978735807550
7438 3 -2.0 24.2586551215358810 44.4954393682730114 16.1630890382807237
7439 3 -2.0 26.5940291551649182 44.4954393682730114 16.7367183672851425
7440 3 -2.0 24.7841995846739103 38.8198750877780796 13.9697685445763291
7441 1 2.0 26.0357780135195007 40.0554396423322601 17.6485083350248750
7442 1 2.0 25.3424507263193277 43.2598748137188380 21.8312605516541645
7443 1 2.0 27.6778247599483649 43.2598748137188380 19.8418288287292661
7444 1 2.0 23.7004039798904635 40.0554396423322601 19.6379400579497734
7445 2 4.0 23.3537403362903753 41.6576572280255490 17.5465639496351287
7446 2 4.0 25.6891143699194124 41.6576572280255490 19.7398844433395197
7447 2 4.0 23.3537403362903753 38.4532220566389640 17.5465639496351287
7448 2 4.0 25.6891143699194124 38.4532220566389640 19.7398844433395197
7449 3 -2.0 25.5307281323277699 40.0554396423322601 20.2437313521344926
7450 3 -2.0 25.8475006075110585 43.2598748137188380 19.2360375345445433
7451 3 -2.0 23.5121265738820213 43.2598748137188380 18.0504108584301051
7452 3 -2.0 27.8661021659568071 40.0554396423322601 21.4293580282489380
7453 3 -2.0 24.2586551215358810 42.0243102591646647 20.5497300256895024
7454 3 -2.0 27.1195736183029474 41.2910041968864334 18.9300388609895371
7455 3 -2.0 24.7841995846739103 41.2910041968864334 18.3564095319851113
7456 3 -2.0 26.5940291551649182 42.0243102591646647 21.1233593546939282
7457 3 -2.0 27.1195736183029474 38.8198750877780796 18.9300388609895371
7458 3 -2.0 24.2586551215358810 44.4954393682730114 20.5497300256895024
7459 3 -2.0 26.5940291551649182 44.4954393682730114 21.1233593546939282
7460 3 -2.0 24.7841995846739103 38.8198750877780796 18.3564095319851113
7461 1 2.0 26.0357780135195007 40.0554396423322601 22.0351493224336572
7462 1 2.0 25.3424507263193277 43.2598748137188380 26.2179015390629466
7463 1 2.0 27.6778247599483649 43.2598748137188380 24.2284698161380483
7464 1 2.0 23.7004039798904635 40.0554396423322601 24.0245810453585555
7465 2 4.0 23.3537403362903753 41.6576572280255490 21.9332049370439108
7466 2 4.0 25.6891143699194124 41.6576572280255490 24.1265254307483019
7467 2 4.0 23.3537403362903753 38.4532220566389640 21.9332049370439108
7468 2 4.0 25.6891143699194124 38.4532220566389640 24.1265254307483019
7469 3 -2.0 25.5307281323277699 40.0554396423322601 24.6303723395432748
7470 3 -2.0 25.8475006075110585 43.2598748137188380 23.6226785219533255
7471 3 -2.0 23.5121265738820213 43.2598748137188380 22.4370518458388872
7472 3 -2.0 27.8661021659568071 40.0554396423322601 25.8159990156577202
7473 3 -2.0 24.2586551215358810 42.0243102591646647 24.9363710130982845
7474 3 -2.0 27.1195736183029474 41.2910041968864334 23.3166798483983193
7475 3 -2.0 24.7841995846739103 41.2910041968864334 22.7430505193938934
7476 3 -2.0 26.5940291551649182 42.0243102591646647 25.5100003421027104
7477 3 -2.0 27.1195736183029474 38.8198750877780796 23.3166798483983193
7478 3 -2.0 24.2586551215358810 44.4954393682730114 24.9363710130982845
7479 3 -2.0 26.5940291551649182 44.4954393682730114 25.5100003421027104
7480 3 -2.0 24.7841995846739103 38.8198750877780796 22.7430505193938934
7481 1 2.0 26.0357780135195007 40.0554396423322601 26.4217903098424394
7482 1 2.0 25.3424507263193277 43.2598748137188380 30.6045425264717288
7483 1 2.0 27.6778247599483649 43.2598748137188380 28.6151108035468305
7484 1 2.0 23.7004039798904635 40.0554396423322601 28.4112220327673377
7485 2 4.0 23.3537403362903753 41.6576572280255490 26.3198459244526930
7486 2 4.0 25.6891143699194124 41.6576572280255490 28.5131664181570841
7487 2 4.0 23.3537403362903753 38.4532220566389640 26.3198459244526930
7488 2 4.0 25.6891143699194124 38.4532220566389640 28.5131664181570841
7489 3 -2.0 25.5307281323277699 40.0554396423322601 29.0170133269520569
7490 3 -2.0 25.8475006075110585 43.2598748137188380 28.0093195093621077
7491 3 -2.0 23.5121265738820213 43.2598748137188380 26.8236928332476694
7492 3 -2.0 27.8661021659568071 40.0554396423322601 30.2026400030665023
7493 3 -2.0 24.2586551215358810 42.0243102591646647 29.3230120005070667
7494 3 -2.0 27.1195736183029474 41.2910041968864334 27.7033208358071015
7495 3 -2.0 24.7841995846739103 41.2910041968864334 27.1296915068026756
7496 3 -2.0 26.5940291551649182 42.0243102591646647 29.8966413295114926
7497 3 -2.0 27.1195736183029474 38.8198750877780796 27.7033208358071015
7498 3 -2.0 24.2586551215358810 44.4954393682730114 29.3230120005070667
7499 3 -2.0 26.5940291551649182 44.4954393682730114 29.8966413295114926
7500 3 -2.0 24.7841995846739103 38.8198750877780796 27.1296915068026756
7501 1 2.0 26.0357780135195007 40.0554396423322601 30.8084312972512215
7502 1 2.0 25.3424507263193277 43.2598748137188380 34.9911835138805074
7503 1 2.0 27.6778247599483649 43.2598748137188380 33.0017517909556162
7504 1 2.0 23.7004039798904635 40.0554396423322601 32.7978630201761163
7505 2 4.0 23.3537403362903753 41.6576572280255490 30.7064869118614752
7506 2 4.0 25.6891143699194124 41.6576572280255490 32.8998074055658662
7507 2 4.0 23.3537403362903753 38.4532220566389640 30.7064869118614752
7508 2 4.0 25.6891143699194124 38.4532220566389640 32.8998074055658662
7509 3 -2.0 25.5307281323277699 40.0554396423322601 33.4036543143608355
7510 3 -2.0 25.8475006075110585 43.2598748137188380 32.3959604967708898
7511 3 -2.0 23.5121265738820213 43.2598748137188380 31.2103338206564516
7512 3 -2.0 27.8661021659568071 40.0554396423322601 34.5892809904752880
7513 3 -2.0 24.2586551215358810 42.0243102591646647 33.7096529879158524
7514 3 -2.0 27.1195736183029474 41.2910041968864334 32.0899618232158801
7515 3 -2.0 24.7841995846739103 41.2910041968864334 31.5163324942114578
7516 3 -2.0 26.5940291551649182 42.0243102591646647 34.2832823169202712
7517 3 -2.0 27.1195736183029474 38.8198750877780796 32.0899618232158801
7518 3 -2.0 24.2586551215358810 44.4954393682730114 33.7096529879158524
7519 3 -2.0 26.5940291551649182 44.4954393682730114 34.2832823169202712
7520 3 -2.0 24.7841995846739103 38.8198750877780796 31.5163324942114578
7521 1 2.0 26.0357780135195007 46.4643099851054160 0.1019443853897463
7522 1 2.0 25.3424507263193277 49.6687451564920011 4.2846966020190349
7523 1 2.0 27.6778247599483649 49.6687451564920011 2.2952648790941383
7524 1 2.0 23.7004039798904635 46.4643099851054160 2.0913761083146447
7525 2 4.0 23.3537403362903753 48.0665275707987121 0.0000000000000000
7526 2 4.0 25.6891143699194124 48.0665275707987121 2.1933204937043911
7527 2 4.0 23.3537403362903753 44.8620923994121270 0.0000000000000000
7528 2 4.0 25.6891143699194124 44.8620923994121270 2.1933204937043911
7529 3 -2.0 25.5307281323277699 46.4643099851054160 2.6971674024993644
7530 3 -2.0 25.8475006075110585 49.6687451564920011 1.6894735849094176
7531 3 -2.0 23.5121265738820213 49.6687451564920011 0.5038469087949736
7532 3 -2.0 27.8661021659568071 46.4643099851054160 3.8827940786138089
7533 3 -2.0 24.2586551215358810 48.4331806019378206 3.0031660760543750
7534 3 -2.0 27.1195736183029474 47.6998745396595965 1.3834749113544080
7535 3 -2.0 24.7841995846739103 47.6998745396595965 0.8098455823499836
7536 3 -2.0 26.5940291551649182 48.4331806019378206 3.5767954050587982
7537 3 -2.0 27.1195736183029474 45.2287454305512426 1.3834749113544080
7538 3 -2.0 24.2586551215358810 50.9043097110461744 3.0031660760543750
7539 3 -2.0 26.5940291551649182 50.9043097110461744 3.5767954050587982
7540 3 -2.0 24.7841995846739103 45.2287454305512426 0.8098455823499836
7541 1 2.0 26.0357780135195007 46.4643099851054160 4.4885853727985285
7542 1 2.0 25.3424507263193277 49.6687451564920011 8.6713375894278162
7543 1 2.0 27.6778247599483649 49.6687451564920011 6.6819058665029205
7544 1 2.0 23.7004039798904635 46.4643099851054160 6.4780170957234269
7545 2 4.0 23.3537403362903753 48.0665275707987121 4.3866409874087822
7546 2 4.0 25.6891143699194124 48.0665275707987121 6.5799614811131732
7547 2 4.0 23.3537403362903753 44.8620923994121270 4.3866409874087822
7548 2 4.0 25.6891143699194124 44.8620923994121270 6.5799614811131732
7549 3 -2.0 25.5307281323277699 46.4643099851054160 7.0838083899081470
7550 3 -2.0 25.8475006075110585 49.6687451564920011 6.0761145723181995
7551 3 -2.0 23.5121265738820213 49.6687451564920011 4.8904878962037559
7552 3 -2.0 27.8661021659568071 46.4643099851054160 8.2694350660225915
7553 3 -2.0 24.2586551215358810 48.4331806019378206 7.3898070634631576
7554 3 -2.0 27.1195736183029474 47.6998745396595965 5.7701158987631906
7555 3 -2.0 24.7841995846739103 47.6998745396595965 5.1964865697587657
7556 3 -2.0 26.5940291551649182 48.4331806019378206 7.9634363924675799
7557 3 -2.0 27.1195736183029474 45.2287454305512426 5.7701158987631906
7558 3 -2.0 24.2586551215358810 50.9043097110461744 7.3898070634631576
7559 3 -2.0 26.5940291551649182 50.9043097110461744 7.9634363924675799
7560 3 -2.0 24.7841995846739103 45.2287454305512426 5.1964865697587657
7561 1 2.0 26.0357780135195007 46.4643099851054160 8.8752263602073107
7562 1 2.0 25.3424507263193277 49.6687451564920011 13.0579785768365984
7563 1 2.0 27.6778247599483649 49.6687451564920011 11.0685468539117036
7564 1 2.0 23.7004039798904635 46.4643099851054160 10.8646580831322090
7565 2 4.0 23.3537403362903753 48.0665275707987121 8.7732819748175643
7566 2 4.0 25.6891143699194124 48.0665275707987121 10.9666024685219554
7567 2 4.0 23.3537403362903753 44.8620923994121270 8.7732819748175643
7568 2 4.0 25.6891143699194124 44.8620923994121270 10.9666024685219554
7569 3 -2.0 25.5307281323277699 46.4643099851054160 11.4704493773169283
7570 3 -2.0 25.8475006075110585 49.6687451564920011 10.4627555597269826
7571 3 -2.0 23.5121265738820213 49.6687451564920011 9.2771288836125372
7572 3 -2.0 27.8661021659568071 46.4643099851054160 12.6560760534313737
7573 3 -2.0 24.2586551215358810 48.4331806019378206 11.7764480508719398
7574 3 -2.0 27.1195736183029474 47.6998745396595965 10.1567568861719728
7575 3 -2.0 24.7841995846739103 47.6998745396595965 9.5831275571675469
7576 3 -2.0 26.5940291551649182 48.4331806019378206 12.3500773798763621
7577 3 -2.0 27.1195736183029474 45.2287454305512426 10.1567568861719728
7578 3 -2.0 24.2586551215358810 50.9043097110461744 11.7764480508719398
7579 3 -2.0 26.5940291551649182 50.9043097110461744 12.3500773798763621
7580 3 -2.0 24.7841995846739103 45.2287454305512426 9.5831275571675469
7581 1 2.0 26.0357780135195007 46.4643099851054160 13.2618673476160929
7582 1 2.0 25.3424507263193277 49.6687451564920011 17.4446195642453823
7583 1 2.0 27.6778247599483649 49.6687451564920011 15.4551878413204857
7584 1 2.0 23.7004039798904635 46.4643099851054160 15.2512990705409912
7585 2 4.0 23.3537403362903753 48.0665275707987121 13.1599229622263465
7586 2 4.0 25.6891143699194124 48.0665275707987121 15.3532434559307376
7587 2 4.0 23.3537403362903753 44.8620923994121270 13.1599229622263465
7588 2 4.0 25.6891143699194124 44.8620923994121270 15.3532434559307376
7589 3 -2.0 25.5307281323277699 46.4643099851054160 15.8570903647257104
7590 3 -2.0 25.8475006075110585 49.6687451564920011 14.8493965471357647
7591 3 -2.0 23.5121265738820213 49.6687451564920011 13.6637698710213193
7592 3 -2.0 27.8661021659568071 46.4643099851054160 17.0427170408401558
7593 3 -2.0 24.2586551215358810 48.4331806019378206 16.1630890382807237
7594 3 -2.0 27.1195736183029474 47.6998745396595965 14.5433978735807550
7595 3 -2.0 24.7841995846739103 47.6998745396595965 13.9697685445763291
7596 3 -2.0 26.5940291551649182 48.4331806019378206 16.7367183672851425
7597 3 -2.0 27.1195736183029474 45.2287454305512426 14.5433978735807550
7598 3 -2.0 24.2586551215358810 50.9043097110461744 16.1630890382807237
7599 3 -2.0 26.5940291551649182 50.9043097110461744 16.7367183672851425
7600 3 -2.0 24.7841995846739103 45.2287454305512426 13.9697685445763291
7601 1 2.0 26.0357780135195007 46.4643099851054160 17.6485083350248750
7602 1 2.0 25.3424507263193277 49.6687451564920011 21.8312605516541645
7603 1 2.0 27.6778247599483649 49.6687451564920011 19.8418288287292661
7604 1 2.0 23.7004039798904635 46.4643099851054160 19.6379400579497734
7605 2 4.0 23.3537403362903753 48.0665275707987121 17.5465639496351287
7606 2 4.0 25.6891143699194124 48.0665275707987121 19.7398844433395197
7607 2 4.0 23.3537403362903753 44.8620923994121270 17.5465639496351287
7608 2 4.0 25.6891143699194124 44.8620923994121270 19.7398844433395197
7609 3 -2.0 25.5307281323277699 46.4643099851054160 20.2437313521344926
7610 3 -2.0 25.8475006075110585 49.6687451564920011 19.2360375345445433
7611 3 -2.0 23.5121265738820213 49.6687451564920011 18.0504108584301051
7612 3 -2.0 27.8661021659568071 46.4643099851054160 21.4293580282489380
7613 3 -2.0 24.2586551215358810 48.4331806019378206 20.5497300256895024
7614 3 -2.0 27.1195736183029474 47.6998745396595965 18.9300388609895371
7615 3 -2.0 24.7841995846739103 47.6998745396595965 18.3564095319851113
7616 3 -2.0 26.5940291551649182 48.4331806019378206 21.1233593546939282
7617 3 -2.0 27.1195736183029474 45.2287454305512426 18.9300388609895371
7618 3 -2.0 24.2586551215358810 50.9043097110461744 20.5497300256895024
7619 3 -2.0 26.5940291551649182 50.9043097110461744 21.1233593546939282
7620 3 -2.0 24.7841995846739103 45.2287454305512426 18.3564095319851113
7621 1 2.0 26.0357780135195007 46.4643099851054160 22.0351493224336572
7622 1 2.0 25.3424507263193277 49.6687451564920011 26.2179015390629466
7623 1 2.0 27.6778247599483649 49.6687451564920011 24.2284698161380483
7624 1 2.0 23.7004039798904635 46.4643099851054160 24.0245810453585555
7625 2 4.0 23.3537403362903753 48.0665275707987121 21.9332049370439108
7626 2 4.0 25.6891143699194124 48.0665275707987121 24.1265254307483019
7627 2 4.0 23.3537403362903753 44.8620923994121270 21.9332049370439108
7628 2 4.0 25.6891143699194124 44.8620923994121270 24.1265254307483019
7629 3 -2.0 25.5307281323277699 46.4643099851054160 24.6303723395432748
7630 3 -2.0 25.8475006075110585 49.6687451564920011 23.6226785219533255
7631 3 -2.0 23.5121265738820213 49.6687451564920011 22.4370518458388872
7632 3 -2.0 27.8661021659568071 46.4643099851054160 25.8159990156577202
7633 3 -2.0 24.2586551215358810 48.4331806019378206 24.9363710130982845
7634 3 -2.0 27.1195736183029474 47.6998745396595965 23.3166798483983193
7635 3 -2.0 24.7841995846739103 47.6998745396595965 22.7430505193938934
7636 3 -2.0 26.5940291551649182 48.4331806019378206 25.5100003421027104
7637 3 -2.0 27.1195736183029474 45.2287454305512426 23.3166798483983193
7638 3 -2.0 24.2586551215358810 50.9043097110461744 24.9363710130982845
7639 3 -2.0 26.5940291551649182 50.9043097110461744 25.5100003421027104
7640 3 -2.0 24.7841995846739103 45.2287454305512426 22.7430505193938934
7641 1 2.0 26.0357780135195007 46.4643099851054160 26.4217903098424394
7642 1 2.0 25.3424507263193277 49.6687451564920011 30.6045425264717288
7643 1 2.0 27.6778247599483649 49.6687451564920011 28.6151108035468305
7644 1 2.0 23.7004039798904635 46.4643099851054160 28.4112220327673377
7645 2 4.0 23.3537403362903753 48.0665275707987121 26.3198459244526930
7646 2 4.0 25.6891143699194124 48.0665275707987121 28.5131664181570841
7647 2 4.0 23.3537403362903753 44.8620923994121270 26.3198459244526930
7648 2 4.0 25.6891143699194124 44.8620923994121270 28.5131664181570841
7649 3 -2.0 25.5307281323277699 46.4643099851054160 29.0170133269520569
7650 3 -2.0 25.8475006075110585 49.6687451564920011 28.0093195093621077
7651 3 -2.0 23.5121265738820213 49.6687451564920011 26.8236928332476694
7652 3 -2.0 27.8661021659568071 46.4643099851054160 30.2026400030665023
7653 3 -2.0 24.2586551215358810 48.4331806019378206 29.3230120005070667
7654 3 -2.0 27.1195736183029474 47.6998745396595965 27.7033208358071015
7655 3 -2.0 24.7841995846739103 47.6998745396595965 27.1296915068026756
7656 3 -2.0 26.5940291551649182 48.4331806019378206 29.8966413295114926
7657 3 -2.0 27.1195736183029474 45.2287454305512426 27.7033208358071015
7658 3 -2.0 24.2586551215358810 50.9043097110461744 29.3230120005070667
7659 3 -2.0 26.5940291551649182 50.9043097110461744 29.8966413295114926
7660 3 -2.0 24.7841995846739103 45.2287454305512426 27.1296915068026756
7661 1 2.0 26.0357780135195007 46.4643099851054160 30.8084312972512215
7662 1 2.0 25.3424507263193277 49.6687451564920011 34.9911835138805074
7663 1 2.0 27.6778247599483649 49.6687451564920011 33.0017517909556162
7664 1 2.0 23.7004039798904635 46.4643099851054160 32.7978630201761163
7665 2 4.0 23.3537403362903753 48.0665275707987121 30.7064869118614752
7666 2 4.0 25.6891143699194124 48.0665275707987121 32.8998074055658662
7667 2 4.0 23.3537403362903753 44.8620923994121270 30.7064869118614752
7668 2 4.0 25.6891143699194124 44.8620923994121270 32.8998074055658662
7669 3 -2.0 25.5307281323277699 46.4643099851054160 33.4036543143608355
7670 3 -2.0 25.8475006075110585 49.6687451564920011 32.3959604967708898
7671 3 -2.0 23.5121265738820213 49.6687451564920011 31.2103338206564516
7672 3 -2.0 27.8661021659568071 46.4643099851054160 34.5892809904752880
7673 3 -2.0 24.2586551215358810 48.4331806019378206 33.7096529879158524
7674 3 -2.0 27.1195736183029474 47.6998745396595965 32.0899618232158801
7675 3 -2.0 24.7841995846739103 47.6998745396595965 31.5163324942114578
7676 3 -2.0 26.5940291551649182 48.4331806019378206 34.2832823169202712
7677 3 -2.0 27.1195736183029474 45.2287454305512426 32.0899618232158801
7678 3 -2.0 24.2586551215358810 50.9043097110461744 33.7096529879158524
7679 3 -2.0 26.5940291551649182 50.9043097110461744 34.2832823169202712
7680 3 -2.0 24.7841995846739103 45.2287454305512426 31.5163324942114578
7681 1 2.0 30.7065260807775751 1.6022175856932903 0.1019443853897463
7682 1 2.0 30.0131987935774021 4.8066527570798705 4.2846966020190349
7683 1 2.0 32.3485728272064392 4.8066527570798705 2.2952648790941383
7684 1 2.0 28.3711520471485379 1.6022175856932903 2.0913761083146447
7685 2 4.0 28.0244884035484532 3.2044351713865806 0.0000000000000000
7686 2 4.0 30.3598624371774903 3.2044351713865806 2.1933204937043911
7687 2 4.0 28.0244884035484532 0.0000000000000000 0.0000000000000000
7688 2 4.0 30.3598624371774903 0.0000000000000000 2.1933204937043911
7689 3 -2.0 30.2014761995858443 1.6022175856932903 2.6971674024993644
7690 3 -2.0 30.5182486747691328 4.8066527570798705 1.6894735849094176
7691 3 -2.0 28.1828746411400957 4.8066527570798705 0.5038469087949736
7692 3 -2.0 32.5368502332148850 1.6022175856932903 3.8827940786138089
7693 3 -2.0 28.9294031887939553 3.5710882025256927 3.0031660760543750
7694 3 -2.0 31.7903216855610218 2.8377821402474677 1.3834749113544080
7695 3 -2.0 29.4549476519319846 2.8377821402474677 0.8098455823499836
7696 3 -2.0 31.2647772224229925 3.5710882025256927 3.5767954050587982
7697 3 -2.0 31.7903216855610218 0.3666530311391118 1.3834749113544080
7698 3 -2.0 28.9294031887939553 6.0422173116340492 3.0031660760543750
7699 3 -2.0 31.2647772224229925 6.0422173116340492 3.5767954050587982
7700 3 -2.0 29.4549476519319846 0.3666530311391118 0.8098455823499836
7701 1 2.0 30.7065260807775751 1.6022175856932903 4.4885853727985285
7702 1 2.0 30.0131987935774021 4.8066527570798705 8.6713375894278162
7703 1 2.0 32.3485728272064392 4.8066527570798705 6.6819058665029205
7704 1 2.0 28.3711520471485379 1.6022175856932903 6.4780170957234269
7705 2 4.0 28.0244884035484532 3.2044351713865806 4.3866409874087822
7706 2 4.0 30.3598624371774903 3.2044351713865806 6.5799614811131732
7707 2 4.0 28.0244884035484532 0.0000000000000000 4.3866409874087822
7708 2 4.0 30.3598624371774903 0.0000000000000000 6.5799614811131732
7709 3 -2.0 30.2014761995858443 1.6022175856932903 7.0838083899081470
7710 3 -2.0 30.5182486747691328 4.8066527570798705 6.0761145723181995
7711 3 -2.0 28.1828746411400957 4.8066527570798705 4.8904878962037559
7712 3 -2.0 32.5368502332148850 1.6022175856932903 8.2694350660225915
7713 3 -2.0 28.9294031887939553 3.5710882025256927 7.3898070634631576
7714 3 -2.0 31.7903216855610218 2.8377821402474677 5.7701158987631906
7715 3 -2.0 29.4549476519319846 2.8377821402474677 5.1964865697587657
7716 3 -2.0 31.2647772224229925 3.5710882025256927 7.9634363924675799
7717 3 -2.0 31.7903216855610218 0.3666530311391118 5.7701158987631906
7718 3 -2.0 28.9294031887939553 6.0422173116340492 7.3898070634631576
7719 3 -2.0 31.2647772224229925 6.0422173116340492 7.9634363924675799
7720 3 -2.0 29.4549476519319846 0.3666530311391118 5.1964865697587657
7721 1 2.0 30.7065260807775751 1.6022175856932903 8.8752263602073107
7722 1 2.0 30.0131987935774021 4.8066527570798705 13.0579785768365984
7723 1 2.0 32.3485728272064392 4.8066527570798705 11.0685468539117036
7724 1 2.0 28.3711520471485379 1.6022175856932903 10.8646580831322090
7725 2 4.0 28.0244884035484532 3.2044351713865806 8.7732819748175643
7726 2 4.0 30.3598624371774903 3.2044351713865806 10.9666024685219554
7727 2 4.0 28.0244884035484532 0.0000000000000000 8.7732819748175643
7728 2 4.0 30.3598624371774903 0.0000000000000000 10.9666024685219554
7729 3 -2.0 30.2014761995858443 1.6022175856932903 11.4704493773169283
7730 3 -2.0 30.5182486747691328 4.8066527570798705 10.4627555597269826
7731 3 -2.0 28.1828746411400957 4.8066527570798705 9.2771288836125372
7732 3 -2.0 32.5368502332148850 1.6022175856932903 12.6560760534313737
7733 3 -2.0 28.9294031887939553 3.5710882025256927 11.7764480508719398
7734 3 -2.0 31.7903216855610218 2.8377821402474677 10.1567568861719728
7735 3 -2.0 29.4549476519319846 2.8377821402474677 9.5831275571675469
7736 3 -2.0 31.2647772224229925 3.5710882025256927 12.3500773798763621
7737 3 -2.0 31.7903216855610218 0.3666530311391118 10.1567568861719728
7738 3 -2.0 28.9294031887939553 6.0422173116340492 11.7764480508719398
7739 3 -2.0 31.2647772224229925 6.0422173116340492 12.3500773798763621
7740 3 -2.0 29.4549476519319846 0.3666530311391118 9.5831275571675469
7741 1 2.0 30.7065260807775751 1.6022175856932903 13.2618673476160929
7742 1 2.0 30.0131987935774021 4.8066527570798705 17.4446195642453823
7743 1 2.0 32.3485728272064392 4.8066527570798705 15.4551878413204857
7744 1 2.0 28.3711520471485379 1.6022175856932903 15.2512990705409912
7745 2 4.0 28.0244884035484532 3.2044351713865806 13.1599229622263465
7746 2 4.0 30.3598624371774903 3.2044351713865806 15.3532434559307376
7747 2 4.0 28.0244884035484532 0.0000000000000000 13.1599229622263465
7748 2 4.0 30.3598624371774903 0.0000000000000000 15.3532434559307376
7749 3 -2.0 30.2014761995858443 1.6022175856932903 15.8570903647257104
7750 3 -2.0 30.5182486747691328 4.8066527570798705 14.8493965471357647
7751 3 -2.0 28.1828746411400957 4.8066527570798705 13.6637698710213193
7752 3 -2.0 32.5368502332148850 1.6022175856932903 17.0427170408401558
7753 3 -2.0 28.9294031887939553 3.5710882025256927 16.1630890382807237
7754 3 -2.0 31.7903216855610218 2.8377821402474677 14.5433978735807550
7755 3 -2.0 29.4549476519319846 2.8377821402474677 13.9697685445763291
7756 3 -2.0 31.2647772224229925 3.5710882025256927 16.7367183672851425
7757 3 -2.0 31.7903216855610218 0.3666530311391118 14.5433978735807550
7758 3 -2.0 28.9294031887939553 6.0422173116340492 16.1630890382807237
7759 3 -2.0 31.2647772224229925 6.0422173116340492 16.7367183672851425
7760 3 -2.0 29.4549476519319846 0.3666530311391118 13.9697685445763291
7761 1 2.0 30.7065260807775751 1.6022175856932903 17.6485083350248750
7762 1 2.0 30.0131987935774021 4.8066527570798705 21.8312605516541645
7763 1 2.0 32.3485728272064392 4.8066527570798705 19.8418288287292661
7764 1 2.0 28.3711520471485379 1.6022175856932903 19.6379400579497734
7765 2 4.0 28.0244884035484532 3.2044351713865806 17.5465639496351287
7766 2 4.0 30.3598624371774903 3.2044351713865806 19.7398844433395197
7767 2 4.0 28.0244884035484532 0.0000000000000000 17.5465639496351287
7768 2 4.0 30.3598624371774903 0.0000000000000000 19.7398844433395197
7769 3 -2.0 30.2014761995858443 1.6022175856932903 20.2437313521344926
7770 3 -2.0 30.5182486747691328 4.8066527570798705 19.2360375345445433
7771 3 -2.0 28.1828746411400957 4.8066527570798705 18.0504108584301051
7772 3 -2.0 32.5368502332148850 1.6022175856932903 21.4293580282489380
7773 3 -2.0 28.9294031887939553 3.5710882025256927 20.5497300256895024
7774 3 -2.0 31.7903216855610218 2.8377821402474677 18.9300388609895371
7775 3 -2.0 29.4549476519319846 2.8377821402474677 18.3564095319851113
7776 3 -2.0 31.2647772224229925 3.5710882025256927 21.1233593546939282
7777 3 -2.0 31.7903216855610218 0.3666530311391118 18.9300388609895371
7778 3 -2.0 28.9294031887939553 6.0422173116340492 20.5497300256895024
7779 3 -2.0 31.2647772224229925 6.0422173116340492 21.1233593546939282
7780 3 -2.0 29.4549476519319846 0.3666530311391118 18.3564095319851113
7781 1 2.0 30.7065260807775751 1.6022175856932903 22.0351493224336572
7782 1 2.0 30.0131987935774021 4.8066527570798705 26.2179015390629466
7783 1 2.0 32.3485728272064392 4.8066527570798705 24.2284698161380483
7784 1 2.0 28.3711520471485379 1.6022175856932903 24.0245810453585555
7785 2 4.0 28.0244884035484532 3.2044351713865806 21.9332049370439108
7786 2 4.0 30.3598624371774903 3.2044351713865806 24.1265254307483019
7787 2 4.0 28.0244884035484532 0.0000000000000000 21.9332049370439108
7788 2 4.0 30.3598624371774903 0.0000000000000000 24.1265254307483019
7789 3 -2.0 30.2014761995858443 1.6022175856932903 24.6303723395432748
7790 3 -2.0 30.5182486747691328 4.8066527570798705 23.6226785219533255
7791 3 -2.0 28.1828746411400957 4.8066527570798705 22.4370518458388872
7792 3 -2.0 32.5368502332148850 1.6022175856932903 25.8159990156577202
7793 3 -2.0 28.9294031887939553 3.5710882025256927 24.9363710130982845
7794 3 -2.0 31.7903216855610218 2.8377821402474677 23.3166798483983193
7795 3 -2.0 29.4549476519319846 2.8377821402474677 22.7430505193938934
7796 3 -2.0 31.2647772224229925 3.5710882025256927 25.5100003421027104
7797 3 -2.0 31.7903216855610218 0.3666530311391118 23.3166798483983193
7798 3 -2.0 28.9294031887939553 6.0422173116340492 24.9363710130982845
7799 3 -2.0 31.2647772224229925 6.0422173116340492 25.5100003421027104
7800 3 -2.0 29.4549476519319846 0.3666530311391118 22.7430505193938934
7801 1 2.0 30.7065260807775751 1.6022175856932903 26.4217903098424394
7802 1 2.0 30.0131987935774021 4.8066527570798705 30.6045425264717288
7803 1 2.0 32.3485728272064392 4.8066527570798705 28.6151108035468305
7804 1 2.0 28.3711520471485379 1.6022175856932903 28.4112220327673377
7805 2 4.0 28.0244884035484532 3.2044351713865806 26.3198459244526930
7806 2 4.0 30.3598624371774903 3.2044351713865806 28.5131664181570841
7807 2 4.0 28.0244884035484532 0.0000000000000000 26.3198459244526930
7808 2 4.0 30.3598624371774903 0.0000000000000000 28.5131664181570841
7809 3 -2.0 30.2014761995858443 1.6022175856932903 29.0170133269520569
7810 3 -2.0 30.5182486747691328 4.8066527570798705 28.0093195093621077
7811 3 -2.0 28.1828746411400957 4.8066527570798705 26.8236928332476694
7812 3 -2.0 32.5368502332148850 1.6022175856932903 30.2026400030665023
7813 3 -2.0 28.9294031887939553 3.5710882025256927 29.3230120005070667
7814 3 -2.0 31.7903216855610218 2.8377821402474677 27.7033208358071015
7815 3 -2.0 29.4549476519319846 2.8377821402474677 27.1296915068026756
7816 3 -2.0 31.2647772224229925 3.5710882025256927 29.8966413295114926
7817 3 -2.0 31.7903216855610218 0.3666530311391118 27.7033208358071015
7818 3 -2.0 28.9294031887939553 6.0422173116340492 29.3230120005070667
7819 3 -2.0 31.2647772224229925 6.0422173116340492 29.8966413295114926
7820 3 -2.0 29.4549476519319846 0.3666530311391118 27.1296915068026756
7821 1 2.0 30.7065260807775751 1.6022175856932903 30.8084312972512215
7822 1 2.0 30.0131987935774021 4.8066527570798705 34.9911835138805074
7823 1 2.0 32.3485728272064392 4.8066527570798705 33.0017517909556162
7824 1 2.0 28.3711520471485379 1.6022175856932903 32.7978630201761163
7825 2 4.0 28.0244884035484532 3.2044351713865806 30.7064869118614752
7826 2 4.0 30.3598624371774903 3.2044351713865806 32.8998074055658662
7827 2 4.0 28.0244884035484532 0.0000000000000000 30.7064869118614752
7828 2 4.0 30.3598624371774903 0.0000000000000000 32.8998074055658662
7829 3 -2.0 30.2014761995858443 1.6022175856932903 33.4036543143608355
7830 3 -2.0 30.5182486747691328 4.8066527570798705 32.3959604967708898
7831 3 -2.0 28.1828746411400957 4.8066527570798705 31.2103338206564516
7832 3 -2.0 32.5368502332148850 1.6022175856932903 34.5892809904752880
7833 3 -2.0 28.9294031887939553 3.5710882025256927 33.7096529879158524
7834 3 -2.0 31.7903216855610218 2.8377821402474677 32.0899618232158801
7835 3 -2.0 29.4549476519319846 2.8377821402474677 31.5163324942114578
7836 3 -2.0 31.2647772224229925 3.5710882025256927 34.2832823169202712
7837 3 -2.0 31.7903216855610218 0.3666530311391118 32.0899618232158801
7838 3 -2.0 28.9294031887939553 6.0422173116340492 33.7096529879158524
7839 3 -2.0 31.2647772224229925 6.0422173116340492 34.2832823169202712
7840 3 -2.0 29.4549476519319846 0.3666530311391118 31.5163324942114578
7841 1 2.0 30.7065260807775751 8.0110879284664520 0.1019443853897463
7842 1 2.0 30.0131987935774021 11.2155230998530318 4.2846966020190349
7843 1 2.0 32.3485728272064392 11.2155230998530318 2.2952648790941383
7844 1 2.0 28.3711520471485379 8.0110879284664520 2.0913761083146447
7845 2 4.0 28.0244884035484532 9.6133055141597410 0.0000000000000000
7846 2 4.0 30.3598624371774903 9.6133055141597410 2.1933204937043911
7847 2 4.0 28.0244884035484532 6.4088703427731613 0.0000000000000000
7848 2 4.0 30.3598624371774903 6.4088703427731613 2.1933204937043911
7849 3 -2.0 30.2014761995858443 8.0110879284664520 2.6971674024993644
7850 3 -2.0 30.5182486747691328 11.2155230998530318 1.6894735849094176
7851 3 -2.0 28.1828746411400957 11.2155230998530318 0.5038469087949736
7852 3 -2.0 32.5368502332148850 8.0110879284664520 3.8827940786138089
7853 3 -2.0 28.9294031887939553 9.9799585452988531 3.0031660760543750
7854 3 -2.0 31.7903216855610218 9.2466524830206289 1.3834749113544080
7855 3 -2.0 29.4549476519319846 9.2466524830206289 0.8098455823499836
7856 3 -2.0 31.2647772224229925 9.9799585452988531 3.5767954050587982
7857 3 -2.0 31.7903216855610218 6.7755233739122724 1.3834749113544080
7858 3 -2.0 28.9294031887939553 12.4510876544072104 3.0031660760543750
7859 3 -2.0 31.2647772224229925 12.4510876544072104 3.5767954050587982
7860 3 -2.0 29.4549476519319846 6.7755233739122724 0.8098455823499836
7861 1 2.0 30.7065260807775751 8.0110879284664520 4.4885853727985285
7862 1 2.0 30.0131987935774021 11.2155230998530318 8.6713375894278162
7863 1 2.0 32.3485728272064392 11.2155230998530318 6.6819058665029205
7864 1 2.0 28.3711520471485379 8.0110879284664520 6.4780170957234269
7865 2 4.0 28.0244884035484532 9.6133055141597410 4.3866409874087822
7866 2 4.0 30.3598624371774903 9.6133055141597410 6.5799614811131732
7867 2 4.0 28.0244884035484532 6.4088703427731613 4.3866409874087822
7868 2 4.0 30.3598624371774903 6.4088703427731613 6.5799614811131732
7869 3 -2.0 30.2014761995858443 8.0110879284664520 7.0838083899081470
7870 3 -2.0 30.5182486747691328 11.2155230998530318 6.0761145723181995
7871 3 -2.0 28.1828746411400957 11.2155230998530318 4.8904878962037559
7872 3 -2.0 32.5368502332148850 8.0110879284664520 8.2694350660225915
7873 3 -2.0 28.9294031887939553 9.9799585452988531 7.3898070634631576
7874 3 -2.0 31.7903216855610218 9.2466524830206289 5.7701158987631906
7875 3 -2.0 29.4549476519319846 9.2466524830206289 5.1964865697587657
7876 3 -2.0 31.2647772224229925 9.9799585452988531 7.9634363924675799
7877 3 -2.0 31.7903216855610218 6.7755233739122724 5.7701158987631906
7878 3 -2.0 28.9294031887939553 12.4510876544072104 7.3898070634631576
7879 3 -2.0 31.2647772224229925 12.4510876544072104 7.9634363924675799
7880 3 -2.0 29.4549476519319846 6.7755233739122724 5.1964865697587657
7881 1 2.0 30.7065260807775751 8.0110879284664520 8.8752263602073107
7882 1 2.0 30.0131987935774021 11.2155230998530318 13.0579785768365984
7883 1 2.0 32.3485728272064392 11.2155230998530318 11.0685468539117036
7884 1 2.0 28.3711520471485379 8.0110879284664520 10.8646580831322090
7885 2 4.0 28.0244884035484532 9.6133055141597410 8.7732819748175643
7886 2 4.0 30.3598624371774903 9.6133055141597410 10.9666024685219554
7887 2 4.0 28.0244884035484532 6.4088703427731613 8.7732819748175643
7888 2 4.0 30.3598624371774903 6.4088703427731613 10.9666024685219554
7889 3 -2.0 30.2014761995858443 8.0110879284664520 11.4704493773169283
7890 3 -2.0 30.5182486747691328 11.2155230998530318 10.4627555597269826
7891 3 -2.0 28.1828746411400957 11.2155230998530318 9.2771288836125372
7892 3 -2.0 32.5368502332148850 8.0110879284664520 12.6560760534313737
7893 3 -2.0 28.9294031887939553 9.9799585452988531 11.7764480508719398
7894 3 -2.0 31.7903216855610218 9.2466524830206289 10.1567568861719728
7895 3 -2.0 29.4549476519319846 9.2466524830206289 9.5831275571675469
7896 3 -2.0 31.2647772224229925 9.9799585452988531 12.3500773798763621
7897 3 -2.0 31.7903216855610218 6.7755233739122724 10.1567568861719728
7898 3 -2.0 28.9294031887939553 12.4510876544072104 11.7764480508719398
7899 3 -2.0 31.2647772224229925 12.4510876544072104 12.3500773798763621
7900 3 -2.0 29.4549476519319846 6.7755233739122724 9.5831275571675469
7901 1 2.0 30.7065260807775751 8.0110879284664520 13.2618673476160929
7902 1 2.0 30.0131987935774021 11.2155230998530318 17.4446195642453823
7903 1 2.0 32.3485728272064392 11.2155230998530318 15.4551878413204857
7904 1 2.0 28.3711520471485379 8.0110879284664520 15.2512990705409912
7905 2 4.0 28.0244884035484532 9.6133055141597410 13.1599229622263465
7906 2 4.0 30.3598624371774903 9.6133055141597410 15.3532434559307376
7907 2 4.0 28.0244884035484532 6.4088703427731613 13.1599229622263465
7908 2 4.0 30.3598624371774903 6.4088703427731613 15.3532434559307376
7909 3 -2.0 30.2014761995858443 8.0110879284664520 15.8570903647257104
7910 3 -2.0 30.5182486747691328 11.2155230998530318 14.8493965471357647
7911 3 -2.0 28.1828746411400957 11.2155230998530318 13.6637698710213193
7912 3 -2.0 32.5368502332148850 8.0110879284664520 17.0427170408401558
7913 3 -2.0 28.9294031887939553 9.9799585452988531 16.1630890382807237
7914 3 -2.0 31.7903216855610218 9.2466524830206289 14.5433978735807550
7915 3 -2.0 29.4549476519319846 9.2466524830206289 13.9697685445763291
7916 3 -2.0 31.2647772224229925 9.9799585452988531 16.7367183672851425
7917 3 -2.0 31.7903216855610218 6.7755233739122724 14.5433978735807550
7918 3 -2.0 28.9294031887939553 12.4510876544072104 16.1630890382807237
7919 3 -2.0 31.2647772224229925 12.4510876544072104 16.7367183672851425
7920 3 -2.0 29.4549476519319846 6.7755233739122724 13.9697685445763291
7921 1 2.0 30.7065260807775751 8.0110879284664520 17.6485083350248750
7922 1 2.0 30.0131987935774021 11.2155230998530318 21.8312605516541645
7923 1 2.0 32.3485728272064392 11.2155230998530318 19.8418288287292661
7924 1 2.0 28.3711520471485379 8.0110879284664520 19.6379400579497734
7925 2 4.0 28.0244884035484532 9.6133055141597410 17.5465639496351287
7926 2 4.0 30.3598624371774903 9.6133055141597410 19.7398844433395197
7927 2 4.0 28.0244884035484532 6.4088703427731613 17.5465639496351287
7928 2 4.0 30.3598624371774903 6.4088703427731613 19.7398844433395197
7929 3 -2.0 30.2014761995858443 8.0110879284664520 20.2437313521344926
7930 3 -2.0 30.5182486747691328 11.2155230998530318 19.2360375345445433
7931 3 -2.0 28.1828746411400957 11.2155230998530318 18.0504108584301051
7932 3 -2.0 32.5368502332148850 8.0110879284664520 21.4293580282489380
7933 3 -2.0 28.9294031887939553 9.9799585452988531 20.5497300256895024
7934 3 -2.0 31.7903216855610218 9.2466524830206289 18.9300388609895371
7935 3 -2.0 29.4549476519319846 9.2466524830206289 18.3564095319851113
7936 3 -2.0 31.2647772224229925 9.9799585452988531 21.1233593546939282
7937 3 -2.0 31.7903216855610218 6.7755233739122724 18.9300388609895371
7938 3 -2.0 28.9294031887939553 12.4510876544072104 20.5497300256895024
7939 3 -2.0 31.2647772224229925 12.4510876544072104 21.1233593546939282
7940 3 -2.0 29.4549476519319846 6.7755233739122724 18.3564095319851113
7941 1 2.0 30.7065260807775751 8.0110879284664520 22.0351493224336572
7942 1 2.0 30.0131987935774021 11.2155230998530318 26.2179015390629466
7943 1 2.0 32.3485728272064392 11.2155230998530318 24.2284698161380483
7944 1 2.0 28.3711520471485379 8.0110879284664520 24.0245810453585555
7945 2 4.0 28.0244884035484532 9.6133055141597410 21.9332049370439108
7946 2 4.0 30.3598624371774903 9.6133055141597410 24.1265254307483019
7947 2 4.0 28.0244884035484532 6.4088703427731613 21.9332049370439108
7948 2 4.0 30.3598624371774903 6.4088703427731613 24.1265254307483019
7949 3 -2.0 30.2014761995858443 8.0110879284664520 24.6303723395432748
7950 3 -2.0 30.5182486747691328 11.2155230998530318 23.6226785219533255
7951 3 -2.0 28.1828746411400957 11.2155230998530318 22.4370518458388872
7952 3 -2.0 32.5368502332148850 8.0110879284664520 25.8159990156577202
7953 3 -2.0 28.9294031887939553 9.9799585452988531 24.9363710130982845
7954 3 -2.0 31.7903216855610218 9.2466524830206289 23.3166798483983193
7955 3 -2.0 29.4549476519319846 9.2466524830206289 22.7430505193938934
7956 3 -2.0 31.2647772224229925 9.9799585452988531 25.5100003421027104
7957 3 -2.0 31.7903216855610218 6.7755233739122724 23.3166798483983193
7958 3 -2.0 28.9294031887939553 12.4510876544072104 24.9363710130982845
7959 3 -2.0 31.2647772224229925 12.4510876544072104 25.5100003421027104
7960 3 -2.0 29.4549476519319846 6.7755233739122724 22.7430505193938934
7961 1 2.0 30.7065260807775751 8.0110879284664520 26.4217903098424394
7962 1 2.0 30.0131987935774021 11.2155230998530318 30.6045425264717288
7963 1 2.0 32.3485728272064392 11.2155230998530318 28.6151108035468305
7964 1 2.0 28.3711520471485379 8.0110879284664520 28.4112220327673377
7965 2 4.0 28.0244884035484532 9.6133055141597410 26.3198459244526930
7966 2 4.0 30.3598624371774903 9.6133055141597410 28.5131664181570841
7967 2 4.0 28.0244884035484532 6.4088703427731613 26.3198459244526930
7968 2 4.0 30.3598624371774903 6.4088703427731613 28.5131664181570841
7969 3 -2.0 30.2014761995858443 8.0110879284664520 29.0170133269520569
7970 3 -2.0 30.5182486747691328 11.2155230998530318 28.0093195093621077
7971 3 -2.0 28.1828746411400957 11.2155230998530318 26.8236928332476694
7972 3 -2.0 32.5368502332148850 8.0110879284664520 30.2026400030665023
7973 3 -2.0 28.9294031887939553 9.9799585452988531 29.3230120005070667
7974 3 -2.0 31.7903216855610218 9.2466524830206289 27.7033208358071015
7975 3 -2.0 29.4549476519319846 9.2466524830206289 27.1296915068026756
7976 3 -2.0 31.2647772224229925 9.9799585452988531 29.8966413295114926
7977 3 -2.0 31.7903216855610218 6.7755233739122724 27.7033208358071015
7978 3 -2.0 28.9294031887939553 12.4510876544072104 29.3230120005070667
7979 3 -2.0 31.2647772224229925 12.4510876544072104 29.8966413295114926
7980 3 -2.0 29.4549476519319846 6.7755233739122724 27.1296915068026756
7981 1 2.0 30.7065260807775751 8.0110879284664520 30.8084312972512215
7982 1 2.0 30.0131987935774021 11.2155230998530318 34.9911835138805074
7983 1 2.0 32.3485728272064392 11.2155230998530318 33.0017517909556162
7984 1 2.0 28.3711520471485379 8.0110879284664520 32.7978630201761163
7985 2 4.0 28.0244884035484532 9.6133055141597410 30.7064869118614752
7986 2 4.0 30.3598624371774903 9.6133055141597410 32.8998074055658662
7987 2 4.0 28.0244884035484532 6.4088703427731613 30.7064869118614752
7988 2 4.0 30.3598624371774903 6.4088703427731613 32.8998074055658662
7989 3 -2.0 30.2014761995858443 8.0110879284664520 33.4036543143608355
7990 3 -2.0 30.5182486747691328 11.2155230998530318 32.3959604967708898
7991 3 -2.0 28.1828746411400957 11.2155230998530318 31.2103338206564516
7992 3 -2.0 32.5368502332148850 8.0110879284664520 34.5892809904752880
7993 3 -2.0 28.9294031887939553 9.9799585452988531 33.7096529879158524
7994 3 -2.0 31.7903216855610218 9.2466524830206289 32.0899618232158801
7995 3 -2.0 29.4549476519319846 9.2466524830206289 31.5163324942114578
7996 3 -2.0 31.2647772224229925 9.9799585452988531 34.2832823169202712
7997 3 -2.0 31.7903216855610218 6.7755233739122724 32.0899618232158801
7998 3 -2.0 28.9294031887939553 12.4510876544072104 33.7096529879158524
7999 3 -2.0 31.2647772224229925 12.4510876544072104 34.2832823169202712
8000 3 -2.0 29.4549476519319846 6.7755233739122724 31.5163324942114578
8001 1 2.0 30.7065260807775751 14.4199582712396133 0.1019443853897463
8002 1 2.0 30.0131987935774021 17.6243934426261930 4.2846966020190349
8003 1 2.0 32.3485728272064392 17.6243934426261930 2.2952648790941383
8004 1 2.0 28.3711520471485379 14.4199582712396133 2.0913761083146447
8005 2 4.0 28.0244884035484532 16.0221758569329040 0.0000000000000000
8006 2 4.0 30.3598624371774903 16.0221758569329040 2.1933204937043911
8007 2 4.0 28.0244884035484532 12.8177406855463225 0.0000000000000000
8008 2 4.0 30.3598624371774903 12.8177406855463225 2.1933204937043911
8009 3 -2.0 30.2014761995858443 14.4199582712396133 2.6971674024993644
8010 3 -2.0 30.5182486747691328 17.6243934426261930 1.6894735849094176
8011 3 -2.0 28.1828746411400957 17.6243934426261930 0.5038469087949736
8012 3 -2.0 32.5368502332148850 14.4199582712396133 3.8827940786138089
8013 3 -2.0 28.9294031887939553 16.3888288880720161 3.0031660760543750
8014 3 -2.0 31.7903216855610218 15.6555228257937884 1.3834749113544080
8015 3 -2.0 29.4549476519319846 15.6555228257937884 0.8098455823499836
8016 3 -2.0 31.2647772224229925 16.3888288880720161 3.5767954050587982
8017 3 -2.0 31.7903216855610218 13.1843937166854346 1.3834749113544080
8018 3 -2.0 28.9294031887939553 18.8599579971803735 3.0031660760543750
8019 3 -2.0 31.2647772224229925 18.8599579971803735 3.5767954050587982
8020 3 -2.0 29.4549476519319846 13.1843937166854346 0.8098455823499836
8021 1 2.0 30.7065260807775751 14.4199582712396133 4.4885853727985285
8022 1 2.0 30.0131987935774021 17.6243934426261930 8.6713375894278162
8023 1 2.0 32.3485728272064392 17.6243934426261930 6.6819058665029205
8024 1 2.0 28.3711520471485379 14.4199582712396133 6.4780170957234269
8025 2 4.0 28.0244884035484532 16.0221758569329040 4.3866409874087822
8026 2 4.0 30.3598624371774903 16.0221758569329040 6.5799614811131732
8027 2 4.0 28.0244884035484532 12.8177406855463225 4.3866409874087822
8028 2 4.0 30.3598624371774903 12.8177406855463225 6.5799614811131732
8029 3 -2.0 30.2014761995858443 14.4199582712396133 7.0838083899081470
8030 3 -2.0 30.5182486747691328 17.6243934426261930 6.0761145723181995
8031 3 -2.0 28.1828746411400957 17.6243934426261930 4.8904878962037559
8032 3 -2.0 32.5368502332148850 14.4199582712396133 8.2694350660225915
8033 3 -2.0 28.9294031887939553 16.3888288880720161 7.3898070634631576
8034 3 -2.0 31.7903216855610218 15.6555228257937884 5.7701158987631906
8035 3 -2.0 29.4549476519319846 15.6555228257937884 5.1964865697587657
8036 3 -2.0 31.2647772224229925 16.3888288880720161 7.9634363924675799
8037 3 -2.0 31.7903216855610218 13.1843937166854346 5.7701158987631906
8038 3 -2.0 28.9294031887939553 18.8599579971803735 7.3898070634631576
8039 3 -2.0 31.2647772224229925 18.8599579971803735 7.9634363924675799
8040 3 -2.0 29.4549476519319846 13.1843937166854346 5.1964865697587657
8041 1 2.0 30.7065260807775751 14.4199582712396133 8.8752263602073107
8042 1 2.0 30.0131987935774021 17.6243934426261930 13.0579785768365984
8043 1 2.0 32.3485728272064392 17.6243934426261930 11.0685468539117036
8044 1 2.0 28.3711520471485379 14.4199582712396133 10.8646580831322090
8045 2 4.0 28.0244884035484532 16.0221758569329040 8.7732819748175643
8046 2 4.0 30.3598624371774903 16.0221758569329040 10.9666024685219554
8047 2 4.0 28.0244884035484532 12.8177406855463225 8.7732819748175643
8048 2 4.0 30.3598624371774903 12.8177406855463225 10.9666024685219554
8049 3 -2.0 30.2014761995858443 14.4199582712396133 11.4704493773169283
8050 3 -2.0 30.5182486747691328 17.6243934426261930 10.4627555597269826
8051 3 -2.0 28.1828746411400957 17.6243934426261930 9.2771288836125372
8052 3 -2.0 32.5368502332148850 14.4199582712396133 12.6560760534313737
8053 3 -2.0 28.9294031887939553 16.3888288880720161 11.7764480508719398
8054 3 -2.0 31.7903216855610218 15.6555228257937884 10.1567568861719728
8055 3 -2.0 29.4549476519319846 15.6555228257937884 9.5831275571675469
8056 3 -2.0 31.2647772224229925 16.3888288880720161 12.3500773798763621
8057 3 -2.0 31.7903216855610218 13.1843937166854346 10.1567568861719728
8058 3 -2.0 28.9294031887939553 18.8599579971803735 11.7764480508719398
8059 3 -2.0 31.2647772224229925 18.8599579971803735 12.3500773798763621
8060 3 -2.0 29.4549476519319846 13.1843937166854346 9.5831275571675469
8061 1 2.0 30.7065260807775751 14.4199582712396133 13.2618673476160929
8062 1 2.0 30.0131987935774021 17.6243934426261930 17.4446195642453823
8063 1 2.0 32.3485728272064392 17.6243934426261930 15.4551878413204857
8064 1 2.0 28.3711520471485379 14.4199582712396133 15.2512990705409912
8065 2 4.0 28.0244884035484532 16.0221758569329040 13.1599229622263465
8066 2 4.0 30.3598624371774903 16.0221758569329040 15.3532434559307376
8067 2 4.0 28.0244884035484532 12.8177406855463225 13.1599229622263465
8068 2 4.0 30.3598624371774903 12.8177406855463225 15.3532434559307376
8069 3 -2.0 30.2014761995858443 14.4199582712396133 15.8570903647257104
8070 3 -2.0 30.5182486747691328 17.6243934426261930 14.8493965471357647
8071 3 -2.0 28.1828746411400957 17.6243934426261930 13.6637698710213193
8072 3 -2.0 32.5368502332148850 14.4199582712396133 17.0427170408401558
8073 3 -2.0 28.9294031887939553 16.3888288880720161 16.1630890382807237
8074 3 -2.0 31.7903216855610218 15.6555228257937884 14.5433978735807550
8075 3 -2.0 29.4549476519319846 15.6555228257937884 13.9697685445763291
8076 3 -2.0 31.2647772224229925 16.3888288880720161 16.7367183672851425
8077 3 -2.0 31.7903216855610218 13.1843937166854346 14.5433978735807550
8078 3 -2.0 28.9294031887939553 18.8599579971803735 16.1630890382807237
8079 3 -2.0 31.2647772224229925 18.8599579971803735 16.7367183672851425
8080 3 -2.0 29.4549476519319846 13.1843937166854346 13.9697685445763291
8081 1 2.0 30.7065260807775751 14.4199582712396133 17.6485083350248750
8082 1 2.0 30.0131987935774021 17.6243934426261930 21.8312605516541645
8083 1 2.0 32.3485728272064392 17.6243934426261930 19.8418288287292661
8084 1 2.0 28.3711520471485379 14.4199582712396133 19.6379400579497734
8085 2 4.0 28.0244884035484532 16.0221758569329040 17.5465639496351287
8086 2 4.0 30.3598624371774903 16.0221758569329040 19.7398844433395197
8087 2 4.0 28.0244884035484532 12.8177406855463225 17.5465639496351287
8088 2 4.0 30.3598624371774903 12.8177406855463225 19.7398844433395197
8089 3 -2.0 30.2014761995858443 14.4199582712396133 20.2437313521344926
8090 3 -2.0 30.5182486747691328 17.6243934426261930 19.2360375345445433
8091 3 -2.0 28.1828746411400957 17.6243934426261930 18.0504108584301051
8092 3 -2.0 32.5368502332148850 14.4199582712396133 21.4293580282489380
8093 3 -2.0 28.9294031887939553 16.3888288880720161 20.5497300256895024
8094 3 -2.0 31.7903216855610218 15.6555228257937884 18.9300388609895371
8095 3 -2.0 29.4549476519319846 15.6555228257937884 18.3564095319851113
8096 3 -2.0 31.2647772224229925 16.3888288880720161 21.1233593546939282
8097 3 -2.0 31.7903216855610218 13.1843937166854346 18.9300388609895371
8098 3 -2.0 28.9294031887939553 18.8599579971803735 20.5497300256895024
8099 3 -2.0 31.2647772224229925 18.8599579971803735 21.1233593546939282
8100 3 -2.0 29.4549476519319846 13.1843937166854346 18.3564095319851113
8101 1 2.0 30.7065260807775751 14.4199582712396133 22.0351493224336572
8102 1 2.0 30.0131987935774021 17.6243934426261930 26.2179015390629466
8103 1 2.0 32.3485728272064392 17.6243934426261930 24.2284698161380483
8104 1 2.0 28.3711520471485379 14.4199582712396133 24.0245810453585555
8105 2 4.0 28.0244884035484532 16.0221758569329040 21.9332049370439108
8106 2 4.0 30.3598624371774903 16.0221758569329040 24.1265254307483019
8107 2 4.0 28.0244884035484532 12.8177406855463225 21.9332049370439108
8108 2 4.0 30.3598624371774903 12.8177406855463225 24.1265254307483019
8109 3 -2.0 30.2014761995858443 14.4199582712396133 24.6303723395432748
8110 3 -2.0 30.5182486747691328 17.6243934426261930 23.6226785219533255
8111 3 -2.0 28.1828746411400957 17.6243934426261930 22.4370518458388872
8112 3 -2.0 32.5368502332148850 14.4199582712396133 25.8159990156577202
8113 3 -2.0 28.9294031887939553 16.3888288880720161 24.9363710130982845
8114 3 -2.0 31.7903216855610218 15.6555228257937884 23.3166798483983193
8115 3 -2.0 29.4549476519319846 15.6555228257937884 22.7430505193938934
8116 3 -2.0 31.2647772224229925 16.3888288880720161 25.5100003421027104
8117 3 -2.0 31.7903216855610218 13.1843937166854346 23.3166798483983193
8118 3 -2.0 28.9294031887939553 18.8599579971803735 24.9363710130982845
8119 3 -2.0 31.2647772224229925 18.8599579971803735 25.5100003421027104
8120 3 -2.0 29.4549476519319846 13.1843937166854346 22.7430505193938934
8121 1 2.0 30.7065260807775751 14.4199582712396133 26.4217903098424394
8122 1 2.0 30.0131987935774021 17.6243934426261930 30.6045425264717288
8123 1 2.0 32.3485728272064392 17.6243934426261930 28.6151108035468305
8124 1 2.0 28.3711520471485379 14.4199582712396133 28.4112220327673377
8125 2 4.0 28.0244884035484532 16.0221758569329040 26.3198459244526930
8126 2 4.0 30.3598624371774903 16.0221758569329040 28.5131664181570841
8127 2 4.0 28.0244884035484532 12.8177406855463225 26.3198459244526930
8128 2 4.0 30.3598624371774903 12.8177406855463225 28.5131664181570841
8129 3 -2.0 30.2014761995858443 14.4199582712396133 29.0170133269520569
8130 3 -2.0 30.5182486747691328 17.6243934426261930 28.0093195093621077
8131 3 -2.0 28.1828746411400957 17.6243934426261930 26.8236928332476694
8132 3 -2.0 32.5368502332148850 14.4199582712396133 30.2026400030665023
8133 3 -2.0 28.9294031887939553 16.3888288880720161 29.3230120005070667
8134 3 -2.0 31.7903216855610218 15.6555228257937884 27.7033208358071015
8135 3 -2.0 29.4549476519319846 15.6555228257937884 27.1296915068026756
8136 3 -2.0 31.2647772224229925 16.3888288880720161 29.8966413295114926
8137 3 -2.0 31.7903216855610218 13.1843937166854346 27.7033208358071015
8138 3 -2.0 28.9294031887939553 18.8599579971803735 29.3230120005070667
8139 3 -2.0 31.2647772224229925 18.8599579971803735 29.8966413295114926
8140 3 -2.0 29.4549476519319846 13.1843937166854346 27.1296915068026756
8141 1 2.0 30.7065260807775751 14.4199582712396133 30.8084312972512215
8142 1 2.0 30.0131987935774021 17.6243934426261930 34.9911835138805074
8143 1 2.0 32.3485728272064392 17.6243934426261930 33.0017517909556162
8144 1 2.0 28.3711520471485379 14.4199582712396133 32.7978630201761163
8145 2 4.0 28.0244884035484532 16.0221758569329040 30.7064869118614752
8146 2 4.0 30.3598624371774903 16.0221758569329040 32.8998074055658662
8147 2 4.0 28.0244884035484532 12.8177406855463225 30.7064869118614752
8148 2 4.0 30.3598624371774903 12.8177406855463225 32.8998074055658662
8149 3 -2.0 30.2014761995858443 14.4199582712396133 33.4036543143608355
8150 3 -2.0 30.5182486747691328 17.6243934426261930 32.3959604967708898
8151 3 -2.0 28.1828746411400957 17.6243934426261930 31.2103338206564516
8152 3 -2.0 32.5368502332148850 14.4199582712396133 34.5892809904752880
8153 3 -2.0 28.9294031887939553 16.3888288880720161 33.7096529879158524
8154 3 -2.0 31.7903216855610218 15.6555228257937884 32.0899618232158801
8155 3 -2.0 29.4549476519319846 15.6555228257937884 31.5163324942114578
8156 3 -2.0 31.2647772224229925 16.3888288880720161 34.2832823169202712
8157 3 -2.0 31.7903216855610218 13.1843937166854346 32.0899618232158801
8158 3 -2.0 28.9294031887939553 18.8599579971803735 33.7096529879158524
8159 3 -2.0 31.2647772224229925 18.8599579971803735 34.2832823169202712
8160 3 -2.0 29.4549476519319846 13.1843937166854346 31.5163324942114578
8161 1 2.0 30.7065260807775751 20.8288286140127745 0.1019443853897463
8162 1 2.0 30.0131987935774021 24.0332637853993560 4.2846966020190349
8163 1 2.0 32.3485728272064392 24.0332637853993560 2.2952648790941383
8164 1 2.0 28.3711520471485379 20.8288286140127745 2.0913761083146447
8165 2 4.0 28.0244884035484532 22.4310461997060635 0.0000000000000000
8166 2 4.0 30.3598624371774903 22.4310461997060635 2.1933204937043911
8167 2 4.0 28.0244884035484532 19.2266110283194820 0.0000000000000000
8168 2 4.0 30.3598624371774903 19.2266110283194820 2.1933204937043911
8169 3 -2.0 30.2014761995858443 20.8288286140127745 2.6971674024993644
8170 3 -2.0 30.5182486747691328 24.0332637853993560 1.6894735849094176
8171 3 -2.0 28.1828746411400957 24.0332637853993560 0.5038469087949736
8172 3 -2.0 32.5368502332148850 20.8288286140127745 3.8827940786138089
8173 3 -2.0 28.9294031887939553 22.7976992308451756 3.0031660760543750
8174 3 -2.0 31.7903216855610218 22.0643931685669514 1.3834749113544080
8175 3 -2.0 29.4549476519319846 22.0643931685669514 0.8098455823499836
8176 3 -2.0 31.2647772224229925 22.7976992308451756 3.5767954050587982
8177 3 -2.0 31.7903216855610218 19.5932640594585941 1.3834749113544080
8178 3 -2.0 28.9294031887939553 25.2688283399535329 3.0031660760543750
8179 3 -2.0 31.2647772224229925 25.2688283399535329 3.5767954050587982
8180 3 -2.0 29.4549476519319846 19.5932640594585941 0.8098455823499836
8181 1 2.0 30.7065260807775751 20.8288286140127745 4.4885853727985285
8182 1 2.0 30.0131987935774021 24.0332637853993560 8.6713375894278162
8183 1 2.0 32.3485728272064392 24.0332637853993560 6.6819058665029205
8184 1 2.0 28.3711520471485379 20.8288286140127745 6.4780170957234269
8185 2 4.0 28.0244884035484532 22.4310461997060635 4.3866409874087822
8186 2 4.0 30.3598624371774903 22.4310461997060635 6.5799614811131732
8187 2 4.0 28.0244884035484532 19.2266110283194820 4.3866409874087822
8188 2 4.0 30.3598624371774903 19.2266110283194820 6.5799614811131732
8189 3 -2.0 30.2014761995858443 20.8288286140127745 7.0838083899081470
8190 3 -2.0 30.5182486747691328 24.0332637853993560 6.0761145723181995
8191 3 -2.0 28.1828746411400957 24.0332637853993560 4.8904878962037559
8192 3 -2.0 32.5368502332148850 20.8288286140127745 8.2694350660225915
8193 3 -2.0 28.9294031887939553 22.7976992308451756 7.3898070634631576
8194 3 -2.0 31.7903216855610218 22.0643931685669514 5.7701158987631906
8195 3 -2.0 29.4549476519319846 22.0643931685669514 5.1964865697587657
8196 3 -2.0 31.2647772224229925 22.7976992308451756 7.9634363924675799
8197 3 -2.0 31.7903216855610218 19.5932640594585941 5.7701158987631906
8198 3 -2.0 28.9294031887939553 25.2688283399535329 7.3898070634631576
8199 3 -2.0 31.2647772224229925 25.2688283399535329 7.9634363924675799
8200 3 -2.0 29.4549476519319846 19.5932640594585941 5.1964865697587657
8201 1 2.0 30.7065260807775751 20.8288286140127745 8.8752263602073107
8202 1 2.0 30.0131987935774021 24.0332637853993560 13.0579785768365984
8203 1 2.0 32.3485728272064392 24.0332637853993560 11.0685468539117036
8204 1 2.0 28.3711520471485379 20.8288286140127745 10.8646580831322090
8205 2 4.0 28.0244884035484532 22.4310461997060635 8.7732819748175643
8206 2 4.0 30.3598624371774903 22.4310461997060635 10.9666024685219554
8207 2 4.0 28.0244884035484532 19.2266110283194820 8.7732819748175643
8208 2 4.0 30.3598624371774903 19.2266110283194820 10.9666024685219554
8209 3 -2.0 30.2014761995858443 20.8288286140127745 11.4704493773169283
8210 3 -2.0 30.5182486747691328 24.0332637853993560 10.4627555597269826
8211 3 -2.0 28.1828746411400957 24.0332637853993560 9.2771288836125372
8212 3 -2.0 32.5368502332148850 20.8288286140127745 12.6560760534313737
8213 3 -2.0 28.9294031887939553 22.7976992308451756 11.7764480508719398
8214 3 -2.0 31.7903216855610218 22.0643931685669514 10.1567568861719728
8215 3 -2.0 29.4549476519319846 22.0643931685669514 9.5831275571675469
8216 3 -2.0 31.2647772224229925 22.7976992308451756 12.3500773798763621
8217 3 -2.0 31.7903216855610218 19.5932640594585941 10.1567568861719728
8218 3 -2.0 28.9294031887939553 25.2688283399535329 11.7764480508719398
8219 3 -2.0 31.2647772224229925 25.2688283399535329 12.3500773798763621
8220 3 -2.0 29.4549476519319846 19.5932640594585941 9.5831275571675469
8221 1 2.0 30.7065260807775751 20.8288286140127745 13.2618673476160929
8222 1 2.0 30.0131987935774021 24.0332637853993560 17.4446195642453823
8223 1 2.0 32.3485728272064392 24.0332637853993560 15.4551878413204857
8224 1 2.0 28.3711520471485379 20.8288286140127745 15.2512990705409912
8225 2 4.0 28.0244884035484532 22.4310461997060635 13.1599229622263465
8226 2 4.0 30.3598624371774903 22.4310461997060635 15.3532434559307376
8227 2 4.0 28.0244884035484532 19.2266110283194820 13.1599229622263465
8228 2 4.0 30.3598624371774903 19.2266110283194820 15.3532434559307376
8229 3 -2.0 30.2014761995858443 20.8288286140127745 15.8570903647257104
8230 3 -2.0 30.5182486747691328 24.0332637853993560 14.8493965471357647
8231 3 -2.0 28.1828746411400957 24.0332637853993560 13.6637698710213193
8232 3 -2.0 32.5368502332148850 20.8288286140127745 17.0427170408401558
8233 3 -2.0 28.9294031887939553 22.7976992308451756 16.1630890382807237
8234 3 -2.0 31.7903216855610218 22.0643931685669514 14.5433978735807550
8235 3 -2.0 29.4549476519319846 22.0643931685669514 13.9697685445763291
8236 3 -2.0 31.2647772224229925 22.7976992308451756 16.7367183672851425
8237 3 -2.0 31.7903216855610218 19.5932640594585941 14.5433978735807550
8238 3 -2.0 28.9294031887939553 25.2688283399535329 16.1630890382807237
8239 3 -2.0 31.2647772224229925 25.2688283399535329 16.7367183672851425
8240 3 -2.0 29.4549476519319846 19.5932640594585941 13.9697685445763291
8241 1 2.0 30.7065260807775751 20.8288286140127745 17.6485083350248750
8242 1 2.0 30.0131987935774021 24.0332637853993560 21.8312605516541645
8243 1 2.0 32.3485728272064392 24.0332637853993560 19.8418288287292661
8244 1 2.0 28.3711520471485379 20.8288286140127745 19.6379400579497734
8245 2 4.0 28.0244884035484532 22.4310461997060635 17.5465639496351287
8246 2 4.0 30.3598624371774903 22.4310461997060635 19.7398844433395197
8247 2 4.0 28.0244884035484532 19.2266110283194820 17.5465639496351287
8248 2 4.0 30.3598624371774903 19.2266110283194820 19.7398844433395197
8249 3 -2.0 30.2014761995858443 20.8288286140127745 20.2437313521344926
8250 3 -2.0 30.5182486747691328 24.0332637853993560 19.2360375345445433
8251 3 -2.0 28.1828746411400957 24.0332637853993560 18.0504108584301051
8252 3 -2.0 32.5368502332148850 20.8288286140127745 21.4293580282489380
8253 3 -2.0 28.9294031887939553 22.7976992308451756 20.5497300256895024
8254 3 -2.0 31.7903216855610218 22.0643931685669514 18.9300388609895371
8255 3 -2.0 29.4549476519319846 22.0643931685669514 18.3564095319851113
8256 3 -2.0 31.2647772224229925 22.7976992308451756 21.1233593546939282
8257 3 -2.0 31.7903216855610218 19.5932640594585941 18.9300388609895371
8258 3 -2.0 28.9294031887939553 25.2688283399535329 20.5497300256895024
8259 3 -2.0 31.2647772224229925 25.2688283399535329 21.1233593546939282
8260 3 -2.0 29.4549476519319846 19.5932640594585941 18.3564095319851113
8261 1 2.0 30.7065260807775751 20.8288286140127745 22.0351493224336572
8262 1 2.0 30.0131987935774021 24.0332637853993560 26.2179015390629466
8263 1 2.0 32.3485728272064392 24.0332637853993560 24.2284698161380483
8264 1 2.0 28.3711520471485379 20.8288286140127745 24.0245810453585555
8265 2 4.0 28.0244884035484532 22.4310461997060635 21.9332049370439108
8266 2 4.0 30.3598624371774903 22.4310461997060635 24.1265254307483019
8267 2 4.0 28.0244884035484532 19.2266110283194820 21.9332049370439108
8268 2 4.0 30.3598624371774903 19.2266110283194820 24.1265254307483019
8269 3 -2.0 30.2014761995858443 20.8288286140127745 24.6303723395432748
8270 3 -2.0 30.5182486747691328 24.0332637853993560 23.6226785219533255
8271 3 -2.0 28.1828746411400957 24.0332637853993560 22.4370518458388872
8272 3 -2.0 32.5368502332148850 20.8288286140127745 25.8159990156577202
8273 3 -2.0 28.9294031887939553 22.7976992308451756 24.9363710130982845
8274 3 -2.0 31.7903216855610218 22.0643931685669514 23.3166798483983193
8275 3 -2.0 29.4549476519319846 22.0643931685669514 22.7430505193938934
8276 3 -2.0 31.2647772224229925 22.7976992308451756 25.5100003421027104
8277 3 -2.0 31.7903216855610218 19.5932640594585941 23.3166798483983193
8278 3 -2.0 28.9294031887939553 25.2688283399535329 24.9363710130982845
8279 3 -2.0 31.2647772224229925 25.2688283399535329 25.5100003421027104
8280 3 -2.0 29.4549476519319846 19.5932640594585941 22.7430505193938934
8281 1 2.0 30.7065260807775751 20.8288286140127745 26.4217903098424394
8282 1 2.0 30.0131987935774021 24.0332637853993560 30.6045425264717288
8283 1 2.0 32.3485728272064392 24.0332637853993560 28.6151108035468305
8284 1 2.0 28.3711520471485379 20.8288286140127745 28.4112220327673377
8285 2 4.0 28.0244884035484532 22.4310461997060635 26.3198459244526930
8286 2 4.0 30.3598624371774903 22.4310461997060635 28.5131664181570841
8287 2 4.0 28.0244884035484532 19.2266110283194820 26.3198459244526930
8288 2 4.0 30.3598624371774903 19.2266110283194820 28.5131664181570841
8289 3 -2.0 30.2014761995858443 20.8288286140127745 29.0170133269520569
8290 3 -2.0 30.5182486747691328 24.0332637853993560 28.0093195093621077
8291 3 -2.0 28.1828746411400957 24.0332637853993560 26.8236928332476694
8292 3 -2.0 32.5368502332148850 20.8288286140127745 30.2026400030665023
8293 3 -2.0 28.9294031887939553 22.7976992308451756 29.3230120005070667
8294 3 -2.0 31.7903216855610218 22.0643931685669514 27.7033208358071015
8295 3 -2.0 29.4549476519319846 22.0643931685669514 27.1296915068026756
8296 3 -2.0 31.2647772224229925 22.7976992308451756 29.8966413295114926
8297 3 -2.0 31.7903216855610218 19.5932640594585941 27.7033208358071015
8298 3 -2.0 28.9294031887939553 25.2688283399535329 29.3230120005070667
8299 3 -2.0 31.2647772224229925 25.2688283399535329 29.8966413295114926
8300 3 -2.0 29.4549476519319846 19.5932640594585941 27.1296915068026756
8301 1 2.0 30.7065260807775751 20.8288286140127745 30.8084312972512215
8302 1 2.0 30.0131987935774021 24.0332637853993560 34.9911835138805074
8303 1 2.0 32.3485728272064392 24.0332637853993560 33.0017517909556162
8304 1 2.0 28.3711520471485379 20.8288286140127745 32.7978630201761163
8305 2 4.0 28.0244884035484532 22.4310461997060635 30.7064869118614752
8306 2 4.0 30.3598624371774903 22.4310461997060635 32.8998074055658662
8307 2 4.0 28.0244884035484532 19.2266110283194820 30.7064869118614752
8308 2 4.0 30.3598624371774903 19.2266110283194820 32.8998074055658662
8309 3 -2.0 30.2014761995858443 20.8288286140127745 33.4036543143608355
8310 3 -2.0 30.5182486747691328 24.0332637853993560 32.3959604967708898
8311 3 -2.0 28.1828746411400957 24.0332637853993560 31.2103338206564516
8312 3 -2.0 32.5368502332148850 20.8288286140127745 34.5892809904752880
8313 3 -2.0 28.9294031887939553 22.7976992308451756 33.7096529879158524
8314 3 -2.0 31.7903216855610218 22.0643931685669514 32.0899618232158801
8315 3 -2.0 29.4549476519319846 22.0643931685669514 31.5163324942114578
8316 3 -2.0 31.2647772224229925 22.7976992308451756 34.2832823169202712
8317 3 -2.0 31.7903216855610218 19.5932640594585941 32.0899618232158801
8318 3 -2.0 28.9294031887939553 25.2688283399535329 33.7096529879158524
8319 3 -2.0 31.2647772224229925 25.2688283399535329 34.2832823169202712
8320 3 -2.0 29.4549476519319846 19.5932640594585941 31.5163324942114578
8321 1 2.0 30.7065260807775751 27.2376989567859340 0.1019443853897463
8322 1 2.0 30.0131987935774021 30.4421341281725155 4.2846966020190349
8323 1 2.0 32.3485728272064392 30.4421341281725155 2.2952648790941383
8324 1 2.0 28.3711520471485379 27.2376989567859340 2.0913761083146447
8325 2 4.0 28.0244884035484532 28.8399165424792265 0.0000000000000000
8326 2 4.0 30.3598624371774903 28.8399165424792265 2.1933204937043911
8327 2 4.0 28.0244884035484532 25.6354813710926450 0.0000000000000000
8328 2 4.0 30.3598624371774903 25.6354813710926450 2.1933204937043911
8329 3 -2.0 30.2014761995858443 27.2376989567859340 2.6971674024993644
8330 3 -2.0 30.5182486747691328 30.4421341281725155 1.6894735849094176
8331 3 -2.0 28.1828746411400957 30.4421341281725155 0.5038469087949736
8332 3 -2.0 32.5368502332148850 27.2376989567859340 3.8827940786138089
8333 3 -2.0 28.9294031887939553 29.2065695736183386 3.0031660760543750
8334 3 -2.0 31.7903216855610218 28.4732635113401109 1.3834749113544080
8335 3 -2.0 29.4549476519319846 28.4732635113401109 0.8098455823499836
8336 3 -2.0 31.2647772224229925 29.2065695736183386 3.5767954050587982
8337 3 -2.0 31.7903216855610218 26.0021344022317606 1.3834749113544080
8338 3 -2.0 28.9294031887939553 31.6776986827266924 3.0031660760543750
8339 3 -2.0 31.2647772224229925 31.6776986827266924 3.5767954050587982
8340 3 -2.0 29.4549476519319846 26.0021344022317606 0.8098455823499836
8341 1 2.0 30.7065260807775751 27.2376989567859340 4.4885853727985285
8342 1 2.0 30.0131987935774021 30.4421341281725155 8.6713375894278162
8343 1 2.0 32.3485728272064392 30.4421341281725155 6.6819058665029205
8344 1 2.0 28.3711520471485379 27.2376989567859340 6.4780170957234269
8345 2 4.0 28.0244884035484532 28.8399165424792265 4.3866409874087822
8346 2 4.0 30.3598624371774903 28.8399165424792265 6.5799614811131732
8347 2 4.0 28.0244884035484532 25.6354813710926450 4.3866409874087822
8348 2 4.0 30.3598624371774903 25.6354813710926450 6.5799614811131732
8349 3 -2.0 30.2014761995858443 27.2376989567859340 7.0838083899081470
8350 3 -2.0 30.5182486747691328 30.4421341281725155 6.0761145723181995
8351 3 -2.0 28.1828746411400957 30.4421341281725155 4.8904878962037559
8352 3 -2.0 32.5368502332148850 27.2376989567859340 8.2694350660225915
8353 3 -2.0 28.9294031887939553 29.2065695736183386 7.3898070634631576
8354 3 -2.0 31.7903216855610218 28.4732635113401109 5.7701158987631906
8355 3 -2.0 29.4549476519319846 28.4732635113401109 5.1964865697587657
8356 3 -2.0 31.2647772224229925 29.2065695736183386 7.9634363924675799
8357 3 -2.0 31.7903216855610218 26.0021344022317606 5.7701158987631906
8358 3 -2.0 28.9294031887939553 31.6776986827266924 7.3898070634631576
8359 3 -2.0 31.2647772224229925 31.6776986827266924 7.9634363924675799
8360 3 -2.0 29.4549476519319846 26.0021344022317606 5.1964865697587657
8361 1 2.0 30.7065260807775751 27.2376989567859340 8.8752263602073107
8362 1 2.0 30.0131987935774021 30.4421341281725155 13.0579785768365984
8363 1 2.0 32.3485728272064392 30.4421341281725155 11.0685468539117036
8364 1 2.0 28.3711520471485379 27.2376989567859340 10.8646580831322090
8365 2 4.0 28.0244884035484532 28.8399165424792265 8.7732819748175643
8366 2 4.0 30.3598624371774903 28.8399165424792265 10.9666024685219554
8367 2 4.0 28.0244884035484532 25.6354813710926450 8.7732819748175643
8368 2 4.0 30.3598624371774903 25.6354813710926450 10.9666024685219554
8369 3 -2.0 30.2014761995858443 27.2376989567859340 11.4704493773169283
8370 3 -2.0 30.5182486747691328 30.4421341281725155 10.4627555597269826
8371 3 -2.0 28.1828746411400957 30.4421341281725155 9.2771288836125372
8372 3 -2.0 32.5368502332148850 27.2376989567859340 12.6560760534313737
8373 3 -2.0 28.9294031887939553 29.2065695736183386 11.7764480508719398
8374 3 -2.0 31.7903216855610218 28.4732635113401109 10.1567568861719728
8375 3 -2.0 29.4549476519319846 28.4732635113401109 9.5831275571675469
8376 3 -2.0 31.2647772224229925 29.2065695736183386 12.3500773798763621
8377 3 -2.0 31.7903216855610218 26.0021344022317606 10.1567568861719728
8378 3 -2.0 28.9294031887939553 31.6776986827266924 11.7764480508719398
8379 3 -2.0 31.2647772224229925 31.6776986827266924 12.3500773798763621
8380 3 -2.0 29.4549476519319846 26.0021344022317606 9.5831275571675469
8381 1 2.0 30.7065260807775751 27.2376989567859340 13.2618673476160929
8382 1 2.0 30.0131987935774021 30.4421341281725155 17.4446195642453823
8383 1 2.0 32.3485728272064392 30.4421341281725155 15.4551878413204857
8384 1 2.0 28.3711520471485379 27.2376989567859340 15.2512990705409912
8385 2 4.0 28.0244884035484532 28.8399165424792265 13.1599229622263465
8386 2 4.0 30.3598624371774903 28.8399165424792265 15.3532434559307376
8387 2 4.0 28.0244884035484532 25.6354813710926450 13.1599229622263465
8388 2 4.0 30.3598624371774903 25.6354813710926450 15.3532434559307376
8389 3 -2.0 30.2014761995858443 27.2376989567859340 15.8570903647257104
8390 3 -2.0 30.5182486747691328 30.4421341281725155 14.8493965471357647
8391 3 -2.0 28.1828746411400957 30.4421341281725155 13.6637698710213193
8392 3 -2.0 32.5368502332148850 27.2376989567859340 17.0427170408401558
8393 3 -2.0 28.9294031887939553 29.2065695736183386 16.1630890382807237
8394 3 -2.0 31.7903216855610218 28.4732635113401109 14.5433978735807550
8395 3 -2.0 29.4549476519319846 28.4732635113401109 13.9697685445763291
8396 3 -2.0 31.2647772224229925 29.2065695736183386 16.7367183672851425
8397 3 -2.0 31.7903216855610218 26.0021344022317606 14.5433978735807550
8398 3 -2.0 28.9294031887939553 31.6776986827266924 16.1630890382807237
8399 3 -2.0 31.2647772224229925 31.6776986827266924 16.7367183672851425
8400 3 -2.0 29.4549476519319846 26.0021344022317606 13.9697685445763291
8401 1 2.0 30.7065260807775751 27.2376989567859340 17.6485083350248750
8402 1 2.0 30.0131987935774021 30.4421341281725155 21.8312605516541645
8403 1 2.0 32.3485728272064392 30.4421341281725155 19.8418288287292661
8404 1 2.0 28.3711520471485379 27.2376989567859340 19.6379400579497734
8405 2 4.0 28.0244884035484532 28.8399165424792265 17.5465639496351287
8406 2 4.0 30.3598624371774903 28.8399165424792265 19.7398844433395197
8407 2 4.0 28.0244884035484532 25.6354813710926450 17.5465639496351287
8408 2 4.0 30.3598624371774903 25.6354813710926450 19.7398844433395197
8409 3 -2.0 30.2014761995858443 27.2376989567859340 20.2437313521344926
8410 3 -2.0 30.5182486747691328 30.4421341281725155 19.2360375345445433
8411 3 -2.0 28.1828746411400957 30.4421341281725155 18.0504108584301051
8412 3 -2.0 32.5368502332148850 27.2376989567859340 21.4293580282489380
8413 3 -2.0 28.9294031887939553 29.2065695736183386 20.5497300256895024
8414 3 -2.0 31.7903216855610218 28.4732635113401109 18.9300388609895371
8415 3 -2.0 29.4549476519319846 28.4732635113401109 18.3564095319851113
8416 3 -2.0 31.2647772224229925 29.2065695736183386 21.1233593546939282
8417 3 -2.0 31.7903216855610218 26.0021344022317606 18.9300388609895371
8418 3 -2.0 28.9294031887939553 31.6776986827266924 20.5497300256895024
8419 3 -2.0 31.2647772224229925 31.6776986827266924 21.1233593546939282
8420 3 -2.0 29.4549476519319846 26.0021344022317606 18.3564095319851113
8421 1 2.0 30.7065260807775751 27.2376989567859340 22.0351493224336572
8422 1 2.0 30.0131987935774021 30.4421341281725155 26.2179015390629466
8423 1 2.0 32.3485728272064392 30.4421341281725155 24.2284698161380483
8424 1 2.0 28.3711520471485379 27.2376989567859340 24.0245810453585555
8425 2 4.0 28.0244884035484532 28.8399165424792265 21.9332049370439108
8426 2 4.0 30.3598624371774903 28.8399165424792265 24.1265254307483019
8427 2 4.0 28.0244884035484532 25.6354813710926450 21.9332049370439108
8428 2 4.0 30.3598624371774903 25.6354813710926450 24.1265254307483019
8429 3 -2.0 30.2014761995858443 27.2376989567859340 24.6303723395432748
8430 3 -2.0 30.5182486747691328 30.4421341281725155 23.6226785219533255
8431 3 -2.0 28.1828746411400957 30.4421341281725155 22.4370518458388872
8432 3 -2.0 32.5368502332148850 27.2376989567859340 25.8159990156577202
8433 3 -2.0 28.9294031887939553 29.2065695736183386 24.9363710130982845
8434 3 -2.0 31.7903216855610218 28.4732635113401109 23.3166798483983193
8435 3 -2.0 29.4549476519319846 28.4732635113401109 22.7430505193938934
8436 3 -2.0 31.2647772224229925 29.2065695736183386 25.5100003421027104
8437 3 -2.0 31.7903216855610218 26.0021344022317606 23.3166798483983193
8438 3 -2.0 28.9294031887939553 31.6776986827266924 24.9363710130982845
8439 3 -2.0 31.2647772224229925 31.6776986827266924 25.5100003421027104
8440 3 -2.0 29.4549476519319846 26.0021344022317606 22.7430505193938934
8441 1 2.0 30.7065260807775751 27.2376989567859340 26.4217903098424394
8442 1 2.0 30.0131987935774021 30.4421341281725155 30.6045425264717288
8443 1 2.0 32.3485728272064392 30.4421341281725155 28.6151108035468305
8444 1 2.0 28.3711520471485379 27.2376989567859340 28.4112220327673377
8445 2 4.0 28.0244884035484532 28.8399165424792265 26.3198459244526930
8446 2 4.0 30.3598624371774903 28.8399165424792265 28.5131664181570841
8447 2 4.0 28.0244884035484532 25.6354813710926450 26.3198459244526930
8448 2 4.0 30.3598624371774903 25.6354813710926450 28.5131664181570841
8449 3 -2.0 30.2014761995858443 27.2376989567859340 29.0170133269520569
8450 3 -2.0 30.5182486747691328 30.4421341281725155 28.0093195093621077
8451 3 -2.0 28.1828746411400957 30.4421341281725155 26.8236928332476694
8452 3 -2.0 32.5368502332148850 27.2376989567859340 30.2026400030665023
8453 3 -2.0 28.9294031887939553 29.2065695736183386 29.3230120005070667
8454 3 -2.0 31.7903216855610218 28.4732635113401109 27.7033208358071015
8455 3 -2.0 29.4549476519319846 28.4732635113401109 27.1296915068026756
8456 3 -2.0 31.2647772224229925 29.2065695736183386 29.8966413295114926
8457 3 -2.0 31.7903216855610218 26.0021344022317606 27.7033208358071015
8458 3 -2.0 28.9294031887939553 31.6776986827266924 29.3230120005070667
8459 3 -2.0 31.2647772224229925 31.6776986827266924 29.8966413295114926
8460 3 -2.0 29.4549476519319846 26.0021344022317606 27.1296915068026756
8461 1 2.0 30.7065260807775751 27.2376989567859340 30.8084312972512215
8462 1 2.0 30.0131987935774021 30.4421341281725155 34.9911835138805074
8463 1 2.0 32.3485728272064392 30.4421341281725155 33.0017517909556162
8464 1 2.0 28.3711520471485379 27.2376989567859340 32.7978630201761163
8465 2 4.0 28.0244884035484532 28.8399165424792265 30.7064869118614752
8466 2 4.0 30.3598624371774903 28.8399165424792265 32.8998074055658662
8467 2 4.0 28.0244884035484532 25.6354813710926450 30.7064869118614752
8468 2 4.0 30.3598624371774903 25.6354813710926450 32.8998074055658662
8469 3 -2.0 30.2014761995858443 27.2376989567859340 33.4036543143608355
8470 3 -2.0 30.5182486747691328 30.4421341281725155 32.3959604967708898
8471 3 -2.0 28.1828746411400957 30.4421341281725155 31.2103338206564516
8472 3 -2.0 32.5368502332148850 27.2376989567859340 34.5892809904752880
8473 3 -2.0 28.9294031887939553 29.2065695736183386 33.7096529879158524
8474 3 -2.0 31.7903216855610218 28.4732635113401109 32.0899618232158801
8475 3 -2.0 29.4549476519319846 28.4732635113401109 31.5163324942114578
8476 3 -2.0 31.2647772224229925 29.2065695736183386 34.2832823169202712
8477 3 -2.0 31.7903216855610218 26.0021344022317606 32.0899618232158801
8478 3 -2.0 28.9294031887939553 31.6776986827266924 33.7096529879158524
8479 3 -2.0 31.2647772224229925 31.6776986827266924 34.2832823169202712
8480 3 -2.0 29.4549476519319846 26.0021344022317606 31.5163324942114578
8481 1 2.0 30.7065260807775751 33.6465692995590970 0.1019443853897463
8482 1 2.0 30.0131987935774021 36.8510044709456750 4.2846966020190349
8483 1 2.0 32.3485728272064392 36.8510044709456750 2.2952648790941383
8484 1 2.0 28.3711520471485379 33.6465692995590970 2.0913761083146447
8485 2 4.0 28.0244884035484532 35.2487868852523860 0.0000000000000000
8486 2 4.0 30.3598624371774903 35.2487868852523860 2.1933204937043911
8487 2 4.0 28.0244884035484532 32.0443517138658081 0.0000000000000000
8488 2 4.0 30.3598624371774903 32.0443517138658081 2.1933204937043911
8489 3 -2.0 30.2014761995858443 33.6465692995590970 2.6971674024993644
8490 3 -2.0 30.5182486747691328 36.8510044709456750 1.6894735849094176
8491 3 -2.0 28.1828746411400957 36.8510044709456750 0.5038469087949736
8492 3 -2.0 32.5368502332148850 33.6465692995590970 3.8827940786138089
8493 3 -2.0 28.9294031887939553 35.6154399163915016 3.0031660760543750
8494 3 -2.0 31.7903216855610218 34.8821338541132704 1.3834749113544080
8495 3 -2.0 29.4549476519319846 34.8821338541132704 0.8098455823499836
8496 3 -2.0 31.2647772224229925 35.6154399163915016 3.5767954050587982
8497 3 -2.0 31.7903216855610218 32.4110047450049237 1.3834749113544080
8498 3 -2.0 28.9294031887939553 38.0865690254998555 3.0031660760543750
8499 3 -2.0 31.2647772224229925 38.0865690254998555 3.5767954050587982
8500 3 -2.0 29.4549476519319846 32.4110047450049237 0.8098455823499836
8501 1 2.0 30.7065260807775751 33.6465692995590970 4.4885853727985285
8502 1 2.0 30.0131987935774021 36.8510044709456750 8.6713375894278162
8503 1 2.0 32.3485728272064392 36.8510044709456750 6.6819058665029205
8504 1 2.0 28.3711520471485379 33.6465692995590970 6.4780170957234269
8505 2 4.0 28.0244884035484532 35.2487868852523860 4.3866409874087822
8506 2 4.0 30.3598624371774903 35.2487868852523860 6.5799614811131732
8507 2 4.0 28.0244884035484532 32.0443517138658081 4.3866409874087822
8508 2 4.0 30.3598624371774903 32.0443517138658081 6.5799614811131732
8509 3 -2.0 30.2014761995858443 33.6465692995590970 7.0838083899081470
8510 3 -2.0 30.5182486747691328 36.8510044709456750 6.0761145723181995
8511 3 -2.0 28.1828746411400957 36.8510044709456750 4.8904878962037559
8512 3 -2.0 32.5368502332148850 33.6465692995590970 8.2694350660225915
8513 3 -2.0 28.9294031887939553 35.6154399163915016 7.3898070634631576
8514 3 -2.0 31.7903216855610218 34.8821338541132704 5.7701158987631906
8515 3 -2.0 29.4549476519319846 34.8821338541132704 5.1964865697587657
8516 3 -2.0 31.2647772224229925 35.6154399163915016 7.9634363924675799
8517 3 -2.0 31.7903216855610218 32.4110047450049237 5.7701158987631906
8518 3 -2.0 28.9294031887939553 38.0865690254998555 7.3898070634631576
8519 3 -2.0 31.2647772224229925 38.0865690254998555 7.9634363924675799
8520 3 -2.0 29.4549476519319846 32.4110047450049237 5.1964865697587657
8521 1 2.0 30.7065260807775751 33.6465692995590970 8.8752263602073107
8522 1 2.0 30.0131987935774021 36.8510044709456750 13.0579785768365984
8523 1 2.0 32.3485728272064392 36.8510044709456750 11.0685468539117036
8524 1 2.0 28.3711520471485379 33.6465692995590970 10.8646580831322090
8525 2 4.0 28.0244884035484532 35.2487868852523860 8.7732819748175643
8526 2 4.0 30.3598624371774903 35.2487868852523860 10.9666024685219554
8527 2 4.0 28.0244884035484532 32.0443517138658081 8.7732819748175643
8528 2 4.0 30.3598624371774903 32.0443517138658081 10.9666024685219554
8529 3 -2.0 30.2014761995858443 33.6465692995590970 11.4704493773169283
8530 3 -2.0 30.5182486747691328 36.8510044709456750 10.4627555597269826
8531 3 -2.0 28.1828746411400957 36.8510044709456750 9.2771288836125372
8532 3 -2.0 32.5368502332148850 33.6465692995590970 12.6560760534313737
8533 3 -2.0 28.9294031887939553 35.6154399163915016 11.7764480508719398
8534 3 -2.0 31.7903216855610218 34.8821338541132704 10.1567568861719728
8535 3 -2.0 29.4549476519319846 34.8821338541132704 9.5831275571675469
8536 3 -2.0 31.2647772224229925 35.6154399163915016 12.3500773798763621
8537 3 -2.0 31.7903216855610218 32.4110047450049237 10.1567568861719728
8538 3 -2.0 28.9294031887939553 38.0865690254998555 11.7764480508719398
8539 3 -2.0 31.2647772224229925 38.0865690254998555 12.3500773798763621
8540 3 -2.0 29.4549476519319846 32.4110047450049237 9.5831275571675469
8541 1 2.0 30.7065260807775751 33.6465692995590970 13.2618673476160929
8542 1 2.0 30.0131987935774021 36.8510044709456750 17.4446195642453823
8543 1 2.0 32.3485728272064392 36.8510044709456750 15.4551878413204857
8544 1 2.0 28.3711520471485379 33.6465692995590970 15.2512990705409912
8545 2 4.0 28.0244884035484532 35.2487868852523860 13.1599229622263465
8546 2 4.0 30.3598624371774903 35.2487868852523860 15.3532434559307376
8547 2 4.0 28.0244884035484532 32.0443517138658081 13.1599229622263465
8548 2 4.0 30.3598624371774903 32.0443517138658081 15.3532434559307376
8549 3 -2.0 30.2014761995858443 33.6465692995590970 15.8570903647257104
8550 3 -2.0 30.5182486747691328 36.8510044709456750 14.8493965471357647
8551 3 -2.0 28.1828746411400957 36.8510044709456750 13.6637698710213193
8552 3 -2.0 32.5368502332148850 33.6465692995590970 17.0427170408401558
8553 3 -2.0 28.9294031887939553 35.6154399163915016 16.1630890382807237
8554 3 -2.0 31.7903216855610218 34.8821338541132704 14.5433978735807550
8555 3 -2.0 29.4549476519319846 34.8821338541132704 13.9697685445763291
8556 3 -2.0 31.2647772224229925 35.6154399163915016 16.7367183672851425
8557 3 -2.0 31.7903216855610218 32.4110047450049237 14.5433978735807550
8558 3 -2.0 28.9294031887939553 38.0865690254998555 16.1630890382807237
8559 3 -2.0 31.2647772224229925 38.0865690254998555 16.7367183672851425
8560 3 -2.0 29.4549476519319846 32.4110047450049237 13.9697685445763291
8561 1 2.0 30.7065260807775751 33.6465692995590970 17.6485083350248750
8562 1 2.0 30.0131987935774021 36.8510044709456750 21.8312605516541645
8563 1 2.0 32.3485728272064392 36.8510044709456750 19.8418288287292661
8564 1 2.0 28.3711520471485379 33.6465692995590970 19.6379400579497734
8565 2 4.0 28.0244884035484532 35.2487868852523860 17.5465639496351287
8566 2 4.0 30.3598624371774903 35.2487868852523860 19.7398844433395197
8567 2 4.0 28.0244884035484532 32.0443517138658081 17.5465639496351287
8568 2 4.0 30.3598624371774903 32.0443517138658081 19.7398844433395197
8569 3 -2.0 30.2014761995858443 33.6465692995590970 20.2437313521344926
8570 3 -2.0 30.5182486747691328 36.8510044709456750 19.2360375345445433
8571 3 -2.0 28.1828746411400957 36.8510044709456750 18.0504108584301051
8572 3 -2.0 32.5368502332148850 33.6465692995590970 21.4293580282489380
8573 3 -2.0 28.9294031887939553 35.6154399163915016 20.5497300256895024
8574 3 -2.0 31.7903216855610218 34.8821338541132704 18.9300388609895371
8575 3 -2.0 29.4549476519319846 34.8821338541132704 18.3564095319851113
8576 3 -2.0 31.2647772224229925 35.6154399163915016 21.1233593546939282
8577 3 -2.0 31.7903216855610218 32.4110047450049237 18.9300388609895371
8578 3 -2.0 28.9294031887939553 38.0865690254998555 20.5497300256895024
8579 3 -2.0 31.2647772224229925 38.0865690254998555 21.1233593546939282
8580 3 -2.0 29.4549476519319846 32.4110047450049237 18.3564095319851113
8581 1 2.0 30.7065260807775751 33.6465692995590970 22.0351493224336572
8582 1 2.0 30.0131987935774021 36.8510044709456750 26.2179015390629466
8583 1 2.0 32.3485728272064392 36.8510044709456750 24.2284698161380483
8584 1 2.0 28.3711520471485379 33.6465692995590970 24.0245810453585555
8585 2 4.0 28.0244884035484532 35.2487868852523860 21.9332049370439108
8586 2 4.0 30.3598624371774903 35.2487868852523860 24.1265254307483019
8587 2 4.0 28.0244884035484532 32.0443517138658081 21.9332049370439108
8588 2 4.0 30.3598624371774903 32.0443517138658081 24.1265254307483019
8589 3 -2.0 30.2014761995858443 33.6465692995590970 24.6303723395432748
8590 3 -2.0 30.5182486747691328 36.8510044709456750 23.6226785219533255
8591 3 -2.0 28.1828746411400957 36.8510044709456750 22.4370518458388872
8592 3 -2.0 32.5368502332148850 33.6465692995590970 25.8159990156577202
8593 3 -2.0 28.9294031887939553 35.6154399163915016 24.9363710130982845
8594 3 -2.0 31.7903216855610218 34.8821338541132704 23.3166798483983193
8595 3 -2.0 29.4549476519319846 34.8821338541132704 22.7430505193938934
8596 3 -2.0 31.2647772224229925 35.6154399163915016 25.5100003421027104
8597 3 -2.0 31.7903216855610218 32.4110047450049237 23.3166798483983193
8598 3 -2.0 28.9294031887939553 38.0865690254998555 24.9363710130982845
8599 3 -2.0 31.2647772224229925 38.0865690254998555 25.5100003421027104
8600 3 -2.0 29.4549476519319846 32.4110047450049237 22.7430505193938934
8601 1 2.0 30.7065260807775751 33.6465692995590970 26.4217903098424394
8602 1 2.0 30.0131987935774021 36.8510044709456750 30.6045425264717288
8603 1 2.0 32.3485728272064392 36.8510044709456750 28.6151108035468305
8604 1 2.0 28.3711520471485379 33.6465692995590970 28.4112220327673377
8605 2 4.0 28.0244884035484532 35.2487868852523860 26.3198459244526930
8606 2 4.0 30.3598624371774903 35.2487868852523860 28.5131664181570841
8607 2 4.0 28.0244884035484532 32.0443517138658081 26.3198459244526930
8608 2 4.0 30.3598624371774903 32.0443517138658081 28.5131664181570841
8609 3 -2.0 30.2014761995858443 33.6465692995590970 29.0170133269520569
8610 3 -2.0 30.5182486747691328 36.8510044709456750 28.0093195093621077
8611 3 -2.0 28.1828746411400957 36.8510044709456750 26.8236928332476694
8612 3 -2.0 32.5368502332148850 33.6465692995590970 30.2026400030665023
8613 3 -2.0 28.9294031887939553 35.6154399163915016 29.3230120005070667
8614 3 -2.0 31.7903216855610218 34.8821338541132704 27.7033208358071015
8615 3 -2.0 29.4549476519319846 34.8821338541132704 27.1296915068026756
8616 3 -2.0 31.2647772224229925 35.6154399163915016 29.8966413295114926
8617 3 -2.0 31.7903216855610218 32.4110047450049237 27.7033208358071015
8618 3 -2.0 28.9294031887939553 38.0865690254998555 29.3230120005070667
8619 3 -2.0 31.2647772224229925 38.0865690254998555 29.8966413295114926
8620 3 -2.0 29.4549476519319846 32.4110047450049237 27.1296915068026756
8621 1 2.0 30.7065260807775751 33.6465692995590970 30.8084312972512215
8622 1 2.0 30.0131987935774021 36.8510044709456750 34.9911835138805074
8623 1 2.0 32.3485728272064392 36.8510044709456750 33.0017517909556162
8624 1 2.0 28.3711520471485379 33.6465692995590970 32.7978630201761163
8625 2 4.0 28.0244884035484532 35.2487868852523860 30.7064869118614752
8626 2 4.0 30.3598624371774903 35.2487868852523860 32.8998074055658662
8627 2 4.0 28.0244884035484532 32.0443517138658081 30.7064869118614752
8628 2 4.0 30.3598624371774903 32.0443517138658081 32.8998074055658662
8629 3 -2.0 30.2014761995858443 33.6465692995590970 33.4036543143608355
8630 3 -2.0 30.5182486747691328 36.8510044709456750 32.3959604967708898
8631 3 -2.0 28.1828746411400957 36.8510044709456750 31.2103338206564516
8632 3 -2.0 32.5368502332148850 33.6465692995590970 34.5892809904752880
8633 3 -2.0 28.9294031887939553 35.6154399163915016 33.7096529879158524
8634 3 -2.0 31.7903216855610218 34.8821338541132704 32.0899618232158801
8635 3 -2.0 29.4549476519319846 34.8821338541132704 31.5163324942114578
8636 3 -2.0 31.2647772224229925 35.6154399163915016 34.2832823169202712
8637 3 -2.0 31.7903216855610218 32.4110047450049237 32.0899618232158801
8638 3 -2.0 28.9294031887939553 38.0865690254998555 33.7096529879158524
8639 3 -2.0 31.2647772224229925 38.0865690254998555 34.2832823169202712
8640 3 -2.0 29.4549476519319846 32.4110047450049237 31.5163324942114578
8641 1 2.0 30.7065260807775751 40.0554396423322601 0.1019443853897463
8642 1 2.0 30.0131987935774021 43.2598748137188380 4.2846966020190349
8643 1 2.0 32.3485728272064392 43.2598748137188380 2.2952648790941383
8644 1 2.0 28.3711520471485379 40.0554396423322601 2.0913761083146447
8645 2 4.0 28.0244884035484532 41.6576572280255490 0.0000000000000000
8646 2 4.0 30.3598624371774903 41.6576572280255490 2.1933204937043911
8647 2 4.0 28.0244884035484532 38.4532220566389640 0.0000000000000000
8648 2 4.0 30.3598624371774903 38.4532220566389640 2.1933204937043911
8649 3 -2.0 30.2014761995858443 40.0554396423322601 2.6971674024993644
8650 3 -2.0 30.5182486747691328 43.2598748137188380 1.6894735849094176
8651 3 -2.0 28.1828746411400957 43.2598748137188380 0.5038469087949736
8652 3 -2.0 32.5368502332148850 40.0554396423322601 3.8827940786138089
8653 3 -2.0 28.9294031887939553 42.0243102591646647 3.0031660760543750
8654 3 -2.0 31.7903216855610218 41.2910041968864334 1.3834749113544080
8655 3 -2.0 29.4549476519319846 41.2910041968864334 0.8098455823499836
8656 3 -2.0 31.2647772224229925 42.0243102591646647 3.5767954050587982
8657 3 -2.0 31.7903216855610218 38.8198750877780796 1.3834749113544080
8658 3 -2.0 28.9294031887939553 44.4954393682730114 3.0031660760543750
8659 3 -2.0 31.2647772224229925 44.4954393682730114 3.5767954050587982
8660 3 -2.0 29.4549476519319846 38.8198750877780796 0.8098455823499836
8661 1 2.0 30.7065260807775751 40.0554396423322601 4.4885853727985285
8662 1 2.0 30.0131987935774021 43.2598748137188380 8.6713375894278162
8663 1 2.0 32.3485728272064392 43.2598748137188380 6.6819058665029205
8664 1 2.0 28.3711520471485379 40.0554396423322601 6.4780170957234269
8665 2 4.0 28.0244884035484532 41.6576572280255490 4.3866409874087822
8666 2 4.0 30.3598624371774903 41.6576572280255490 6.5799614811131732
8667 2 4.0 28.0244884035484532 38.4532220566389640 4.3866409874087822
8668 2 4.0 30.3598624371774903 38.4532220566389640 6.5799614811131732
8669 3 -2.0 30.2014761995858443 40.0554396423322601 7.0838083899081470
8670 3 -2.0 30.5182486747691328 43.2598748137188380 6.0761145723181995
8671 3 -2.0 28.1828746411400957 43.2598748137188380 4.8904878962037559
8672 3 -2.0 32.5368502332148850 40.0554396423322601 8.2694350660225915
8673 3 -2.0 28.9294031887939553 42.0243102591646647 7.3898070634631576
8674 3 -2.0 31.7903216855610218 41.2910041968864334 5.7701158987631906
8675 3 -2.0 29.4549476519319846 41.2910041968864334 5.1964865697587657
8676 3 -2.0 31.2647772224229925 42.0243102591646647 7.9634363924675799
8677 3 -2.0 31.7903216855610218 38.8198750877780796 5.7701158987631906
8678 3 -2.0 28.9294031887939553 44.4954393682730114 7.3898070634631576
8679 3 -2.0 31.2647772224229925 44.4954393682730114 7.9634363924675799
8680 3 -2.0 29.4549476519319846 38.8198750877780796 5.1964865697587657
8681 1 2.0 30.7065260807775751 40.0554396423322601 8.8752263602073107
8682 1 2.0 30.0131987935774021 43.2598748137188380 13.0579785768365984
8683 1 2.0 32.3485728272064392 43.2598748137188380 11.0685468539117036
8684 1 2.0 28.3711520471485379 40.0554396423322601 10.8646580831322090
8685 2 4.0 28.0244884035484532 41.6576572280255490 8.7732819748175643
8686 2 4.0 30.3598624371774903 41.6576572280255490 10.9666024685219554
8687 2 4.0 28.0244884035484532 38.4532220566389640 8.7732819748175643
8688 2 4.0 30.3598624371774903 38.4532220566389640 10.9666024685219554
8689 3 -2.0 30.2014761995858443 40.0554396423322601 11.4704493773169283
8690 3 -2.0 30.5182486747691328 43.2598748137188380 10.4627555597269826
8691 3 -2.0 28.1828746411400957 43.2598748137188380 9.2771288836125372
8692 3 -2.0 32.5368502332148850 40.0554396423322601 12.6560760534313737
8693 3 -2.0 28.9294031887939553 42.0243102591646647 11.7764480508719398
8694 3 -2.0 31.7903216855610218 41.2910041968864334 10.1567568861719728
8695 3 -2.0 29.4549476519319846 41.2910041968864334 9.5831275571675469
8696 3 -2.0 31.2647772224229925 42.0243102591646647 12.3500773798763621
8697 3 -2.0 31.7903216855610218 38.8198750877780796 10.1567568861719728
8698 3 -2.0 28.9294031887939553 44.4954393682730114 11.7764480508719398
8699 3 -2.0 31.2647772224229925 44.4954393682730114 12.3500773798763621
8700 3 -2.0 29.4549476519319846 38.8198750877780796 9.5831275571675469
8701 1 2.0 30.7065260807775751 40.0554396423322601 13.2618673476160929
8702 1 2.0 30.0131987935774021 43.2598748137188380 17.4446195642453823
8703 1 2.0 32.3485728272064392 43.2598748137188380 15.4551878413204857
8704 1 2.0 28.3711520471485379 40.0554396423322601 15.2512990705409912
8705 2 4.0 28.0244884035484532 41.6576572280255490 13.1599229622263465
8706 2 4.0 30.3598624371774903 41.6576572280255490 15.3532434559307376
8707 2 4.0 28.0244884035484532 38.4532220566389640 13.1599229622263465
8708 2 4.0 30.3598624371774903 38.4532220566389640 15.3532434559307376
8709 3 -2.0 30.2014761995858443 40.0554396423322601 15.8570903647257104
8710 3 -2.0 30.5182486747691328 43.2598748137188380 14.8493965471357647
8711 3 -2.0 28.1828746411400957 43.2598748137188380 13.6637698710213193
8712 3 -2.0 32.5368502332148850 40.0554396423322601 17.0427170408401558
8713 3 -2.0 28.9294031887939553 42.0243102591646647 16.1630890382807237
8714 3 -2.0 31.7903216855610218 41.2910041968864334 14.5433978735807550
8715 3 -2.0 29.4549476519319846 41.2910041968864334 13.9697685445763291
8716 3 -2.0 31.2647772224229925 42.0243102591646647 16.7367183672851425
8717 3 -2.0 31.7903216855610218 38.8198750877780796 14.5433978735807550
8718 3 -2.0 28.9294031887939553 44.4954393682730114 16.1630890382807237
8719 3 -2.0 31.2647772224229925 44.4954393682730114 16.7367183672851425
8720 3 -2.0 29.4549476519319846 38.8198750877780796 13.9697685445763291
8721 1 2.0 30.7065260807775751 40.0554396423322601 17.6485083350248750
8722 1 2.0 30.0131987935774021 43.2598748137188380 21.8312605516541645
8723 1 2.0 32.3485728272064392 43.2598748137188380 19.8418288287292661
8724 1 2.0 28.3711520471485379 40.0554396423322601 19.6379400579497734
8725 2 4.0 28.0244884035484532 41.6576572280255490 17.5465639496351287
8726 2 4.0 30.3598624371774903 41.6576572280255490 19.7398844433395197
8727 2 4.0 28.0244884035484532 38.4532220566389640 17.5465639496351287
8728 2 4.0 30.3598624371774903 38.4532220566389640 19.7398844433395197
8729 3 -2.0 30.2014761995858443 40.0554396423322601 20.2437313521344926
8730 3 -2.0 30.5182486747691328 43.2598748137188380 19.2360375345445433
8731 3 -2.0 28.1828746411400957 43.2598748137188380 18.0504108584301051
8732 3 -2.0 32.5368502332148850 40.0554396423322601 21.4293580282489380
8733 3 -2.0 28.9294031887939553 42.0243102591646647 20.5497300256895024
8734 3 -2.0 31.7903216855610218 41.2910041968864334 18.9300388609895371
8735 3 -2.0 29.4549476519319846 41.2910041968864334 18.3564095319851113
8736 3 -2.0 31.2647772224229925 42.0243102591646647 21.1233593546939282
8737 3 -2.0 31.7903216855610218 38.8198750877780796 18.9300388609895371
8738 3 -2.0 28.9294031887939553 44.4954393682730114 20.5497300256895024
8739 3 -2.0 31.2647772224229925 44.4954393682730114 21.1233593546939282
8740 3 -2.0 29.4549476519319846 38.8198750877780796 18.3564095319851113
8741 1 2.0 30.7065260807775751 40.0554396423322601 22.0351493224336572
8742 1 2.0 30.0131987935774021 43.2598748137188380 26.2179015390629466
8743 1 2.0 32.3485728272064392 43.2598748137188380 24.2284698161380483
8744 1 2.0 28.3711520471485379 40.0554396423322601 24.0245810453585555
8745 2 4.0 28.0244884035484532 41.6576572280255490 21.9332049370439108
8746 2 4.0 30.3598624371774903 41.6576572280255490 24.1265254307483019
8747 2 4.0 28.0244884035484532 38.4532220566389640 21.9332049370439108
8748 2 4.0 30.3598624371774903 38.4532220566389640 24.1265254307483019
8749 3 -2.0 30.2014761995858443 40.0554396423322601 24.6303723395432748
8750 3 -2.0 30.5182486747691328 43.2598748137188380 23.6226785219533255
8751 3 -2.0 28.1828746411400957 43.2598748137188380 22.4370518458388872
8752 3 -2.0 32.5368502332148850 40.0554396423322601 25.8159990156577202
8753 3 -2.0 28.9294031887939553 42.0243102591646647 24.9363710130982845
8754 3 -2.0 31.7903216855610218 41.2910041968864334 23.3166798483983193
8755 3 -2.0 29.4549476519319846 41.2910041968864334 22.7430505193938934
8756 3 -2.0 31.2647772224229925 42.0243102591646647 25.5100003421027104
8757 3 -2.0 31.7903216855610218 38.8198750877780796 23.3166798483983193
8758 3 -2.0 28.9294031887939553 44.4954393682730114 24.9363710130982845
8759 3 -2.0 31.2647772224229925 44.4954393682730114 25.5100003421027104
8760 3 -2.0 29.4549476519319846 38.8198750877780796 22.7430505193938934
8761 1 2.0 30.7065260807775751 40.0554396423322601 26.4217903098424394
8762 1 2.0 30.0131987935774021 43.2598748137188380 30.6045425264717288
8763 1 2.0 32.3485728272064392 43.2598748137188380 28.6151108035468305
8764 1 2.0 28.3711520471485379 40.0554396423322601 28.4112220327673377
8765 2 4.0 28.0244884035484532 41.6576572280255490 26.3198459244526930
8766 2 4.0 30.3598624371774903 41.6576572280255490 28.5131664181570841
8767 2 4.0 28.0244884035484532 38.4532220566389640 26.3198459244526930
8768 2 4.0 30.3598624371774903 38.4532220566389640 28.5131664181570841
8769 3 -2.0 30.2014761995858443 40.0554396423322601 29.0170133269520569
8770 3 -2.0 30.5182486747691328 43.2598748137188380 28.0093195093621077
8771 3 -2.0 28.1828746411400957 43.2598748137188380 26.8236928332476694
8772 3 -2.0 32.5368502332148850 40.0554396423322601 30.2026400030665023
8773 3 -2.0 28.9294031887939553 42.0243102591646647 29.3230120005070667
8774 3 -2.0 31.7903216855610218 41.2910041968864334 27.7033208358071015
8775 3 -2.0 29.4549476519319846 41.2910041968864334 27.1296915068026756
8776 3 -2.0 31.2647772224229925 42.0243102591646647 29.8966413295114926
8777 3 -2.0 31.7903216855610218 38.8198750877780796 27.7033208358071015
8778 3 -2.0 28.9294031887939553 44.4954393682730114 29.3230120005070667
8779 3 -2.0 31.2647772224229925 44.4954393682730114 29.8966413295114926
8780 3 -2.0 29.4549476519319846 38.8198750877780796 27.1296915068026756
8781 1 2.0 30.7065260807775751 40.0554396423322601 30.8084312972512215
8782 1 2.0 30.0131987935774021 43.2598748137188380 34.9911835138805074
8783 1 2.0 32.3485728272064392 43.2598748137188380 33.0017517909556162
8784 1 2.0 28.3711520471485379 40.0554396423322601 32.7978630201761163
8785 2 4.0 28.0244884035484532 41.6576572280255490 30.7064869118614752
8786 2 4.0 30.3598624371774903 41.6576572280255490 32.8998074055658662
8787 2 4.0 28.0244884035484532 38.4532220566389640 30.7064869118614752
8788 2 4.0 30.3598624371774903 38.4532220566389640 32.8998074055658662
8789 3 -2.0 30.2014761995858443 40.0554396423322601 33.4036543143608355
8790 3 -2.0 30.5182486747691328 43.2598748137188380 32.3959604967708898
8791 3 -2.0 28.1828746411400957 43.2598748137188380 31.2103338206564516
8792 3 -2.0 32.5368502332148850 40.0554396423322601 34.5892809904752880
8793 3 -2.0 28.9294031887939553 42.0243102591646647 33.7096529879158524
8794 3 -2.0 31.7903216855610218 41.2910041968864334 32.0899618232158801
8795 3 -2.0 29.4549476519319846 41.2910041968864334 31.5163324942114578
8796 3 -2.0 31.2647772224229925 42.0243102591646647 34.2832823169202712
8797 3 -2.0 31.7903216855610218 38.8198750877780796 32.0899618232158801
8798 3 -2.0 28.9294031887939553 44.4954393682730114 33.7096529879158524
8799 3 -2.0 31.2647772224229925 44.4954393682730114 34.2832823169202712
8800 3 -2.0 29.4549476519319846 38.8198750877780796 31.5163324942114578
8801 1 2.0 30.7065260807775751 46.4643099851054160 0.1019443853897463
8802 1 2.0 30.0131987935774021 49.6687451564920011 4.2846966020190349
8803 1 2.0 32.3485728272064392 49.6687451564920011 2.2952648790941383
8804 1 2.0 28.3711520471485379 46.4643099851054160 2.0913761083146447
8805 2 4.0 28.0244884035484532 48.0665275707987121 0.0000000000000000
8806 2 4.0 30.3598624371774903 48.0665275707987121 2.1933204937043911
8807 2 4.0 28.0244884035484532 44.8620923994121270 0.0000000000000000
8808 2 4.0 30.3598624371774903 44.8620923994121270 2.1933204937043911
8809 3 -2.0 30.2014761995858443 46.4643099851054160 2.6971674024993644
8810 3 -2.0 30.5182486747691328 49.6687451564920011 1.6894735849094176
8811 3 -2.0 28.1828746411400957 49.6687451564920011 0.5038469087949736
8812 3 -2.0 32.5368502332148850 46.4643099851054160 3.8827940786138089
8813 3 -2.0 28.9294031887939553 48.4331806019378206 3.0031660760543750
8814 3 -2.0 31.7903216855610218 47.6998745396595965 1.3834749113544080
8815 3 -2.0 29.4549476519319846 47.6998745396595965 0.8098455823499836
8816 3 -2.0 31.2647772224229925 48.4331806019378206 3.5767954050587982
8817 3 -2.0 31.7903216855610218 45.2287454305512426 1.3834749113544080
8818 3 -2.0 28.9294031887939553 50.9043097110461744 3.0031660760543750
8819 3 -2.0 31.2647772224229925 50.9043097110461744 3.5767954050587982
8820 3 -2.0 29.4549476519319846 45.2287454305512426 0.8098455823499836
8821 1 2.0 30.7065260807775751 46.4643099851054160 4.4885853727985285
8822 1 2.0 30.0131987935774021 49.6687451564920011 8.6713375894278162
8823 1 2.0 32.3485728272064392 49.6687451564920011 6.6819058665029205
8824 1 2.0 28.3711520471485379 46.4643099851054160 6.4780170957234269
8825 2 4.0 28.0244884035484532 48.0665275707987121 4.3866409874087822
8826 2 4.0 30.3598624371774903 48.0665275707987121 6.5799614811131732
8827 2 4.0 28.0244884035484532 44.8620923994121270 4.3866409874087822
8828 2 4.0 30.3598624371774903 44.8620923994121270 6.5799614811131732
8829 3 -2.0 30.2014761995858443 46.4643099851054160 7.0838083899081470
8830 3 -2.0 30.5182486747691328 49.6687451564920011 6.0761145723181995
8831 3 -2.0 28.1828746411400957 49.6687451564920011 4.8904878962037559
8832 3 -2.0 32.5368502332148850 46.4643099851054160 8.2694350660225915
8833 3 -2.0 28.9294031887939553 48.4331806019378206 7.3898070634631576
8834 3 -2.0 31.7903216855610218 47.6998745396595965 5.7701158987631906
8835 3 -2.0 29.4549476519319846 47.6998745396595965 5.1964865697587657
8836 3 -2.0 31.2647772224229925 48.4331806019378206 7.9634363924675799
8837 3 -2.0 31.7903216855610218 45.2287454305512426 5.7701158987631906
8838 3 -2.0 28.9294031887939553 50.9043097110461744 7.3898070634631576
8839 3 -2.0 31.2647772224229925 50.9043097110461744 7.9634363924675799
8840 3 -2.0 29.4549476519319846 45.2287454305512426 5.1964865697587657
8841 1 2.0 30.7065260807775751 46.4643099851054160 8.8752263602073107
8842 1 2.0 30.0131987935774021 49.6687451564920011 13.0579785768365984
8843 1 2.0 32.3485728272064392 49.6687451564920011 11.0685468539117036
8844 1 2.0 28.3711520471485379 46.4643099851054160 10.8646580831322090
8845 2 4.0 28.0244884035484532 48.0665275707987121 8.7732819748175643
8846 2 4.0 30.3598624371774903 48.0665275707987121 10.9666024685219554
8847 2 4.0 28.0244884035484532 44.8620923994121270 8.7732819748175643
8848 2 4.0 30.3598624371774903 44.8620923994121270 10.9666024685219554
8849 3 -2.0 30.2014761995858443 46.4643099851054160 11.4704493773169283
8850 3 -2.0 30.5182486747691328 49.6687451564920011 10.4627555597269826
8851 3 -2.0 28.1828746411400957 49.6687451564920011 9.2771288836125372
8852 3 -2.0 32.5368502332148850 46.4643099851054160 12.6560760534313737
8853 3 -2.0 28.9294031887939553 48.4331806019378206 11.7764480508719398
8854 3 -2.0 31.7903216855610218 47.6998745396595965 10.1567568861719728
8855 3 -2.0 29.4549476519319846 47.6998745396595965 9.5831275571675469
8856 3 -2.0 31.2647772224229925 48.4331806019378206 12.3500773798763621
8857 3 -2.0 31.7903216855610218 45.2287454305512426 10.1567568861719728
8858 3 -2.0 28.9294031887939553 50.9043097110461744 11.7764480508719398
8859 3 -2.0 31.2647772224229925 50.9043097110461744 12.3500773798763621
8860 3 -2.0 29.4549476519319846 45.2287454305512426 9.5831275571675469
8861 1 2.0 30.7065260807775751 46.4643099851054160 13.2618673476160929
8862 1 2.0 30.0131987935774021 49.6687451564920011 17.4446195642453823
8863 1 2.0 32.3485728272064392 49.6687451564920011 15.4551878413204857
8864 1 2.0 28.3711520471485379 46.4643099851054160 15.2512990705409912
8865 2 4.0 28.0244884035484532 48.0665275707987121 13.1599229622263465
8866 2 4.0 30.3598624371774903 48.0665275707987121 15.3532434559307376
8867 2 4.0 28.0244884035484532 44.8620923994121270 13.1599229622263465
8868 2 4.0 30.3598624371774903 44.8620923994121270 15.3532434559307376
8869 3 -2.0 30.2014761995858443 46.4643099851054160 15.8570903647257104
8870 3 -2.0 30.5182486747691328 49.6687451564920011 14.8493965471357647
8871 3 -2.0 28.1828746411400957 49.6687451564920011 13.6637698710213193
8872 3 -2.0 32.5368502332148850 46.4643099851054160 17.0427170408401558
8873 3 -2.0 28.9294031887939553 48.4331806019378206 16.1630890382807237
8874 3 -2.0 31.7903216855610218 47.6998745396595965 14.5433978735807550
8875 3 -2.0 29.4549476519319846 47.6998745396595965 13.9697685445763291
8876 3 -2.0 31.2647772224229925 48.4331806019378206 16.7367183672851425
8877 3 -2.0 31.7903216855610218 45.2287454305512426 14.5433978735807550
8878 3 -2.0 28.9294031887939553 50.9043097110461744 16.1630890382807237
8879 3 -2.0 31.2647772224229925 50.9043097110461744 16.7367183672851425
8880 3 -2.0 29.4549476519319846 45.2287454305512426 13.9697685445763291
8881 1 2.0 30.7065260807775751 46.4643099851054160 17.6485083350248750
8882 1 2.0 30.0131987935774021 49.6687451564920011 21.8312605516541645
8883 1 2.0 32.3485728272064392 49.6687451564920011 19.8418288287292661
8884 1 2.0 28.3711520471485379 46.4643099851054160 19.6379400579497734
8885 2 4.0 28.0244884035484532 48.0665275707987121 17.5465639496351287
8886 2 4.0 30.3598624371774903 48.0665275707987121 19.7398844433395197
8887 2 4.0 28.0244884035484532 44.8620923994121270 17.5465639496351287
8888 2 4.0 30.3598624371774903 44.8620923994121270 19.7398844433395197
8889 3 -2.0 30.2014761995858443 46.4643099851054160 20.2437313521344926
8890 3 -2.0 30.5182486747691328 49.6687451564920011 19.2360375345445433
8891 3 -2.0 28.1828746411400957 49.6687451564920011 18.0504108584301051
8892 3 -2.0 32.5368502332148850 46.4643099851054160 21.4293580282489380
8893 3 -2.0 28.9294031887939553 48.4331806019378206 20.5497300256895024
8894 3 -2.0 31.7903216855610218 47.6998745396595965 18.9300388609895371
8895 3 -2.0 29.4549476519319846 47.6998745396595965 18.3564095319851113
8896 3 -2.0 31.2647772224229925 48.4331806019378206 21.1233593546939282
8897 3 -2.0 31.7903216855610218 45.2287454305512426 18.9300388609895371
8898 3 -2.0 28.9294031887939553 50.9043097110461744 20.5497300256895024
8899 3 -2.0 31.2647772224229925 50.9043097110461744 21.1233593546939282
8900 3 -2.0 29.4549476519319846 45.2287454305512426 18.3564095319851113
8901 1 2.0 30.7065260807775751 46.4643099851054160 22.0351493224336572
8902 1 2.0 30.0131987935774021 49.6687451564920011 26.2179015390629466
8903 1 2.0 32.3485728272064392 49.6687451564920011 24.2284698161380483
8904 1 2.0 28.3711520471485379 46.4643099851054160 24.0245810453585555
8905 2 4.0 28.0244884035484532 48.0665275707987121 21.9332049370439108
8906 2 4.0 30.3598624371774903 48.0665275707987121 24.1265254307483019
8907 2 4.0 28.0244884035484532 44.8620923994121270 21.9332049370439108
8908 2 4.0 30.3598624371774903 44.8620923994121270 24.1265254307483019
8909 3 -2.0 30.2014761995858443 46.4643099851054160 24.6303723395432748
8910 3 -2.0 30.5182486747691328 49.6687451564920011 23.6226785219533255
8911 3 -2.0 28.1828746411400957 49.6687451564920011 22.4370518458388872
8912 3 -2.0 32.5368502332148850 46.4643099851054160 25.8159990156577202
8913 3 -2.0 28.9294031887939553 48.4331806019378206 24.9363710130982845
8914 3 -2.0 31.7903216855610218 47.6998745396595965 23.3166798483983193
8915 3 -2.0 29.4549476519319846 47.6998745396595965 22.7430505193938934
8916 3 -2.0 31.2647772224229925 48.4331806019378206 25.5100003421027104
8917 3 -2.0 31.7903216855610218 45.2287454305512426 23.3166798483983193
8918 3 -2.0 28.9294031887939553 50.9043097110461744 24.9363710130982845
8919 3 -2.0 31.2647772224229925 50.9043097110461744 25.5100003421027104
8920 3 -2.0 29.4549476519319846 45.2287454305512426 22.7430505193938934
8921 1 2.0 30.7065260807775751 46.4643099851054160 26.4217903098424394
8922 1 2.0 30.0131987935774021 49.6687451564920011 30.6045425264717288
8923 1 2.0 32.3485728272064392 49.6687451564920011 28.6151108035468305
8924 1 2.0 28.3711520471485379 46.4643099851054160 28.4112220327673377
8925 2 4.0 28.0244884035484532 48.0665275707987121 26.3198459244526930
8926 2 4.0 30.3598624371774903 48.0665275707987121 28.5131664181570841
8927 2 4.0 28.0244884035484532 44.8620923994121270 26.3198459244526930
8928 2 4.0 30.3598624371774903 44.8620923994121270 28.5131664181570841
8929 3 -2.0 30.2014761995858443 46.4643099851054160 29.0170133269520569
8930 3 -2.0 30.5182486747691328 49.6687451564920011 28.0093195093621077
8931 3 -2.0 28.1828746411400957 49.6687451564920011 26.8236928332476694
8932 3 -2.0 32.5368502332148850 46.4643099851054160 30.2026400030665023
8933 3 -2.0 28.9294031887939553 48.4331806019378206 29.3230120005070667
8934 3 -2.0 31.7903216855610218 47.6998745396595965 27.7033208358071015
8935 3 -2.0 29.4549476519319846 47.6998745396595965 27.1296915068026756
8936 3 -2.0 31.2647772224229925 48.4331806019378206 29.8966413295114926
8937 3 -2.0 31.7903216855610218 45.2287454305512426 27.7033208358071015
8938 3 -2.0 28.9294031887939553 50.9043097110461744 29.3230120005070667
8939 3 -2.0 31.2647772224229925 50.9043097110461744 29.8966413295114926
8940 3 -2.0 29.4549476519319846 45.2287454305512426 27.1296915068026756
8941 1 2.0 30.7065260807775751 46.4643099851054160 30.8084312972512215
8942 1 2.0 30.0131987935774021 49.6687451564920011 34.9911835138805074
8943 1 2.0 32.3485728272064392 49.6687451564920011 33.0017517909556162
8944 1 2.0 28.3711520471485379 46.4643099851054160 32.7978630201761163
8945 2 4.0 28.0244884035484532 48.0665275707987121 30.7064869118614752
8946 2 4.0 30.3598624371774903 48.0665275707987121 32.8998074055658662
8947 2 4.0 28.0244884035484532 44.8620923994121270 30.7064869118614752
8948 2 4.0 30.3598624371774903 44.8620923994121270 32.8998074055658662
8949 3 -2.0 30.2014761995858443 46.4643099851054160 33.4036543143608355
8950 3 -2.0 30.5182486747691328 49.6687451564920011 32.3959604967708898
8951 3 -2.0 28.1828746411400957 49.6687451564920011 31.2103338206564516
8952 3 -2.0 32.5368502332148850 46.4643099851054160 34.5892809904752880
8953 3 -2.0 28.9294031887939553 48.4331806019378206 33.7096529879158524
8954 3 -2.0 31.7903216855610218 47.6998745396595965 32.0899618232158801
8955 3 -2.0 29.4549476519319846 47.6998745396595965 31.5163324942114578
8956 3 -2.0 31.2647772224229925 48.4331806019378206 34.2832823169202712
8957 3 -2.0 31.7903216855610218 45.2287454305512426 32.0899618232158801
8958 3 -2.0 28.9294031887939553 50.9043097110461744 33.7096529879158524
8959 3 -2.0 31.2647772224229925 50.9043097110461744 34.2832823169202712
8960 3 -2.0 29.4549476519319846 45.2287454305512426 31.5163324942114578
8961 1 2.0 35.3772741480356530 1.6022175856932903 0.1019443853897463
8962 1 2.0 34.6839468608354764 4.8066527570798705 4.2846966020190349
8963 1 2.0 37.0193208944645136 4.8066527570798705 2.2952648790941383
8964 1 2.0 33.0419001144066158 1.6022175856932903 2.0913761083146447
8965 2 4.0 32.6952364708065275 3.2044351713865806 0.0000000000000000
8966 2 4.0 35.0306105044355647 3.2044351713865806 2.1933204937043911
8967 2 4.0 32.6952364708065275 0.0000000000000000 0.0000000000000000
8968 2 4.0 35.0306105044355647 0.0000000000000000 2.1933204937043911
8969 3 -2.0 34.8722242668439222 1.6022175856932903 2.6971674024993644
8970 3 -2.0 35.1889967420272072 4.8066527570798705 1.6894735849094176
8971 3 -2.0 32.8536227083981700 4.8066527570798705 0.5038469087949736
8972 3 -2.0 37.2075983004729594 1.6022175856932903 3.8827940786138089
8973 3 -2.0 33.6001512560520297 3.5710882025256927 3.0031660760543750
8974 3 -2.0 36.4610697528190997 2.8377821402474677 1.3834749113544080
8975 3 -2.0 34.1256957191900625 2.8377821402474677 0.8098455823499836
8976 3 -2.0 35.9355252896810669 3.5710882025256927 3.5767954050587982
8977 3 -2.0 36.4610697528190997 0.3666530311391118 1.3834749113544080
8978 3 -2.0 33.6001512560520297 6.0422173116340492 3.0031660760543750
8979 3 -2.0 35.9355252896810669 6.0422173116340492 3.5767954050587982
8980 3 -2.0 34.1256957191900625 0.3666530311391118 0.8098455823499836
8981 1 2.0 35.3772741480356530 1.6022175856932903 4.4885853727985285
8982 1 2.0 34.6839468608354764 4.8066527570798705 8.6713375894278162
8983 1 2.0 37.0193208944645136 4.8066527570798705 6.6819058665029205
8984 1 2.0 33.0419001144066158 1.6022175856932903 6.4780170957234269
8985 2 4.0 32.6952364708065275 3.2044351713865806 4.3866409874087822
8986 2 4.0 35.0306105044355647 3.2044351713865806 6.5799614811131732
8987 2 4.0 32.6952364708065275 0.0000000000000000 4.3866409874087822
8988 2 4.0 35.0306105044355647 0.0000000000000000 6.5799614811131732
8989 3 -2.0 34.8722242668439222 1.6022175856932903 7.0838083899081470
8990 3 -2.0 35.1889967420272072 4.8066527570798705 6.0761145723181995
8991 3 -2.0 32.8536227083981700 4.8066527570798705 4.8904878962037559
8992 3 -2.0 37.2075983004729594 1.6022175856932903 8.2694350660225915
8993 3 -2.0 33.6001512560520297 3.5710882025256927 7.3898070634631576
8994 3 -2.0 36.4610697528190997 2.8377821402474677 5.7701158987631906
8995 3 -2.0 34.1256957191900625 2.8377821402474677 5.1964865697587657
8996 3 -2.0 35.9355252896810669 3.5710882025256927 7.9634363924675799
8997 3 -2.0 36.4610697528190997 0.3666530311391118 5.7701158987631906
8998 3 -2.0 33.6001512560520297 6.0422173116340492 7.3898070634631576
8999 3 -2.0 35.9355252896810669 6.0422173116340492 7.9634363924675799
9000 3 -2.0 34.1256957191900625 0.3666530311391118 5.1964865697587657
9001 1 2.0 35.3772741480356530 1.6022175856932903 8.8752263602073107
9002 1 2.0 34.6839468608354764 4.8066527570798705 13.0579785768365984
9003 1 2.0 37.0193208944645136 4.8066527570798705 11.0685468539117036
9004 1 2.0 33.0419001144066158 1.6022175856932903 10.8646580831322090
9005 2 4.0 32.6952364708065275 3.2044351713865806 8.7732819748175643
9006 2 4.0 35.0306105044355647 3.2044351713865806 10.9666024685219554
9007 2 4.0 32.6952364708065275 0.0000000000000000 8.7732819748175643
9008 2 4.0 35.0306105044355647 0.0000000000000000 10.9666024685219554
9009 3 -2.0 34.8722242668439222 1.6022175856932903 11.4704493773169283
9010 3 -2.0 35.1889967420272072 4.8066527570798705 10.4627555597269826
9011 3 -2.0 32.8536227083981700 4.8066527570798705 9.2771288836125372
9012 3 -2.0 37.2075983004729594 1.6022175856932903 12.6560760534313737
9013 3 -2.0 33.6001512560520297 3.5710882025256927 11.7764480508719398
9014 3 -2.0 36.4610697528190997 2.8377821402474677 10.1567568861719728
9015 3 -2.0 34.1256957191900625 2.8377821402474677 9.5831275571675469
9016 3 -2.0 35.9355252896810669 3.5710882025256927 12.3500773798763621
9017 3 -2.0 36.4610697528190997 0.3666530311391118 10.1567568861719728
9018 3 -2.0 33.6001512560520297 6.0422173116340492 11.7764480508719398
9019 3 -2.0 35.9355252896810669 6.0422173116340492 12.3500773798763621
9020 3 -2.0 34.1256957191900625 0.3666530311391118 9.5831275571675469
9021 1 2.0 35.3772741480356530 1.6022175856932903 13.2618673476160929
9022 1 2.0 34.6839468608354764 4.8066527570798705 17.4446195642453823
9023 1 2.0 37.0193208944645136 4.8066527570798705 15.4551878413204857
9024 1 2.0 33.0419001144066158 1.6022175856932903 15.2512990705409912
9025 2 4.0 32.6952364708065275 3.2044351713865806 13.1599229622263465
9026 2 4.0 35.0306105044355647 3.2044351713865806 15.3532434559307376
9027 2 4.0 32.6952364708065275 0.0000000000000000 13.1599229622263465
9028 2 4.0 35.0306105044355647 0.0000000000000000 15.3532434559307376
9029 3 -2.0 34.8722242668439222 1.6022175856932903 15.8570903647257104
9030 3 -2.0 35.1889967420272072 4.8066527570798705 14.8493965471357647
9031 3 -2.0 32.8536227083981700 4.8066527570798705 13.6637698710213193
9032 3 -2.0 37.2075983004729594 1.6022175856932903 17.0427170408401558
9033 3 -2.0 33.6001512560520297 3.5710882025256927 16.1630890382807237
9034 3 -2.0 36.4610697528190997 2.8377821402474677 14.5433978735807550
9035 3 -2.0 34.1256957191900625 2.8377821402474677 13.9697685445763291
9036 3 -2.0 35.9355252896810669 3.5710882025256927 16.7367183672851425
9037 3 -2.0 36.4610697528190997 0.3666530311391118 14.5433978735807550
9038 3 -2.0 33.6001512560520297 6.0422173116340492 16.1630890382807237
9039 3 -2.0 35.9355252896810669 6.0422173116340492 16.7367183672851425
9040 3 -2.0 34.1256957191900625 0.3666530311391118 13.9697685445763291
9041 1 2.0 35.3772741480356530 1.6022175856932903 17.6485083350248750
9042 1 2.0 34.6839468608354764 4.8066527570798705 21.8312605516541645
9043 1 2.0 37.0193208944645136 4.8066527570798705 19.8418288287292661
9044 1 2.0 33.0419001144066158 1.6022175856932903 19.6379400579497734
9045 2 4.0 32.6952364708065275 3.2044351713865806 17.5465639496351287
9046 2 4.0 35.0306105044355647 3.2044351713865806 19.7398844433395197
9047 2 4.0 32.6952364708065275 0.0000000000000000 17.5465639496351287
9048 2 4.0 35.0306105044355647 0.0000000000000000 19.7398844433395197
9049 3 -2.0 34.8722242668439222 1.6022175856932903 20.2437313521344926
9050 3 -2.0 35.1889967420272072 4.8066527570798705 19.2360375345445433
9051 3 -2.0 32.8536227083981700 4.8066527570798705 18.0504108584301051
9052 3 -2.0 37.2075983004729594 1.6022175856932903 21.4293580282489380
9053 3 -2.0 33.6001512560520297 3.5710882025256927 20.5497300256895024
9054 3 -2.0 36.4610697528190997 2.8377821402474677 18.9300388609895371
9055 3 -2.0 34.1256957191900625 2.8377821402474677 18.3564095319851113
9056 3 -2.0 35.9355252896810669 3.5710882025256927 21.1233593546939282
9057 3 -2.0 36.4610697528190997 0.3666530311391118 18.9300388609895371
9058 3 -2.0 33.6001512560520297 6.0422173116340492 20.5497300256895024
9059 3 -2.0 35.9355252896810669 6.0422173116340492 21.1233593546939282
9060 3 -2.0 34.1256957191900625 0.3666530311391118 18.3564095319851113
9061 1 2.0 35.3772741480356530 1.6022175856932903 22.0351493224336572
9062 1 2.0 34.6839468608354764 4.8066527570798705 26.2179015390629466
9063 1 2.0 37.0193208944645136 4.8066527570798705 24.2284698161380483
9064 1 2.0 33.0419001144066158 1.6022175856932903 24.0245810453585555
9065 2 4.0 32.6952364708065275 3.2044351713865806 21.9332049370439108
9066 2 4.0 35.0306105044355647 3.2044351713865806 24.1265254307483019
9067 2 4.0 32.6952364708065275 0.0000000000000000 21.9332049370439108
9068 2 4.0 35.0306105044355647 0.0000000000000000 24.1265254307483019
9069 3 -2.0 34.8722242668439222 1.6022175856932903 24.6303723395432748
9070 3 -2.0 35.1889967420272072 4.8066527570798705 23.6226785219533255
9071 3 -2.0 32.8536227083981700 4.8066527570798705 22.4370518458388872
9072 3 -2.0 37.2075983004729594 1.6022175856932903 25.8159990156577202
9073 3 -2.0 33.6001512560520297 3.5710882025256927 24.9363710130982845
9074 3 -2.0 36.4610697528190997 2.8377821402474677 23.3166798483983193
9075 3 -2.0 34.1256957191900625 2.8377821402474677 22.7430505193938934
9076 3 -2.0 35.9355252896810669 3.5710882025256927 25.5100003421027104
9077 3 -2.0 36.4610697528190997 0.3666530311391118 23.3166798483983193
9078 3 -2.0 33.6001512560520297 6.0422173116340492 24.9363710130982845
9079 3 -2.0 35.9355252896810669 6.0422173116340492 25.5100003421027104
9080 3 -2.0 34.1256957191900625 0.3666530311391118 22.7430505193938934
9081 1 2.0 35.3772741480356530 1.6022175856932903 26.4217903098424394
9082 1 2.0 34.6839468608354764 4.8066527570798705 30.6045425264717288
9083 1 2.0 37.0193208944645136 4.8066527570798705 28.6151108035468305
9084 1 2.0 33.0419001144066158 1.6022175856932903 28.4112220327673377
9085 2 4.0 32.6952364708065275 3.2044351713865806 26.3198459244526930
9086 2 4.0 35.0306105044355647 3.2044351713865806 28.5131664181570841
9087 2 4.0 32.6952364708065275 0.0000000000000000 26.3198459244526930
9088 2 4.0 35.0306105044355647 0.0000000000000000 28.5131664181570841
9089 3 -2.0 34.8722242668439222 1.6022175856932903 29.0170133269520569
9090 3 -2.0 35.1889967420272072 4.8066527570798705 28.0093195093621077
9091 3 -2.0 32.8536227083981700 4.8066527570798705 26.8236928332476694
9092 3 -2.0 37.2075983004729594 1.6022175856932903 30.2026400030665023
9093 3 -2.0 33.6001512560520297 3.5710882025256927 29.3230120005070667
9094 3 -2.0 36.4610697528190997 2.8377821402474677 27.7033208358071015
9095 3 -2.0 34.1256957191900625 2.8377821402474677 27.1296915068026756
9096 3 -2.0 35.9355252896810669 3.5710882025256927 29.8966413295114926
9097 3 -2.0 36.4610697528190997 0.3666530311391118 27.7033208358071015
9098 3 -2.0 33.6001512560520297 6.0422173116340492 29.3230120005070667
9099 3 -2.0 35.9355252896810669 6.0422173116340492 29.8966413295114926
9100 3 -2.0 34.1256957191900625 0.3666530311391118 27.1296915068026756
9101 1 2.0 35.3772741480356530 1.6022175856932903 30.8084312972512215
9102 1 2.0 34.6839468608354764 4.8066527570798705 34.9911835138805074
9103 1 2.0 37.0193208944645136 4.8066527570798705 33.0017517909556162
9104 1 2.0 33.0419001144066158 1.6022175856932903 32.7978630201761163
9105 2 4.0 32.6952364708065275 3.2044351713865806 30.7064869118614752
9106 2 4.0 35.0306105044355647 3.2044351713865806 32.8998074055658662
9107 2 4.0 32.6952364708065275 0.0000000000000000 30.7064869118614752
9108 2 4.0 35.0306105044355647 0.0000000000000000 32.8998074055658662
9109 3 -2.0 34.8722242668439222 1.6022175856932903 33.4036543143608355
9110 3 -2.0 35.1889967420272072 4.8066527570798705 32.3959604967708898
9111 3 -2.0 32.8536227083981700 4.8066527570798705 31.2103338206564516
9112 3 -2.0 37.2075983004729594 1.6022175856932903 34.5892809904752880
9113 3 -2.0 33.6001512560520297 3.5710882025256927 33.7096529879158524
9114 3 -2.0 36.4610697528190997 2.8377821402474677 32.0899618232158801
9115 3 -2.0 34.1256957191900625 2.8377821402474677 31.5163324942114578
9116 3 -2.0 35.9355252896810669 3.5710882025256927 34.2832823169202712
9117 3 -2.0 36.4610697528190997 0.3666530311391118 32.0899618232158801
9118 3 -2.0 33.6001512560520297 6.0422173116340492 33.7096529879158524
9119 3 -2.0 35.9355252896810669 6.0422173116340492 34.2832823169202712
9120 3 -2.0 34.1256957191900625 0.3666530311391118 31.5163324942114578
9121 1 2.0 35.3772741480356530 8.0110879284664520 0.1019443853897463
9122 1 2.0 34.6839468608354764 11.2155230998530318 4.2846966020190349
9123 1 2.0 37.0193208944645136 11.2155230998530318 2.2952648790941383
9124 1 2.0 33.0419001144066158 8.0110879284664520 2.0913761083146447
9125 2 4.0 32.6952364708065275 9.6133055141597410 0.0000000000000000
9126 2 4.0 35.0306105044355647 9.6133055141597410 2.1933204937043911
9127 2 4.0 32.6952364708065275 6.4088703427731613 0.0000000000000000
9128 2 4.0 35.0306105044355647 6.4088703427731613 2.1933204937043911
9129 3 -2.0 34.8722242668439222 8.0110879284664520 2.6971674024993644
9130 3 -2.0 35.1889967420272072 11.2155230998530318 1.6894735849094176
9131 3 -2.0 32.8536227083981700 11.2155230998530318 0.5038469087949736
9132 3 -2.0 37.2075983004729594 8.0110879284664520 3.8827940786138089
9133 3 -2.0 33.6001512560520297 9.9799585452988531 3.0031660760543750
9134 3 -2.0 36.4610697528190997 9.2466524830206289 1.3834749113544080
9135 3 -2.0 34.1256957191900625 9.2466524830206289 0.8098455823499836
9136 3 -2.0 35.9355252896810669 9.9799585452988531 3.5767954050587982
9137 3 -2.0 36.4610697528190997 6.7755233739122724 1.3834749113544080
9138 3 -2.0 33.6001512560520297 12.4510876544072104 3.0031660760543750
9139 3 -2.0 35.9355252896810669 12.4510876544072104 3.5767954050587982
9140 3 -2.0 34.1256957191900625 6.7755233739122724 0.8098455823499836
9141 1 2.0 35.3772741480356530 8.0110879284664520 4.4885853727985285
9142 1 2.0 34.6839468608354764 11.2155230998530318 8.6713375894278162
9143 1 2.0 37.0193208944645136 11.2155230998530318 6.6819058665029205
9144 1 2.0 33.0419001144066158 8.0110879284664520 6.4780170957234269
9145 2 4.0 32.6952364708065275 9.6133055141597410 4.3866409874087822
9146 2 4.0 35.0306105044355647 9.6133055141597410 6.5799614811131732
9147 2 4.0 32.6952364708065275 6.4088703427731613 4.3866409874087822
9148 2 4.0 35.0306105044355647 6.4088703427731613 6.5799614811131732
9149 3 -2.0 34.8722242668439222 8.0110879284664520 7.0838083899081470
9150 3 -2.0 35.1889967420272072 11.2155230998530318 6.0761145723181995
9151 3 -2.0 32.8536227083981700 11.2155230998530318 4.8904878962037559
9152 3 -2.0 37.2075983004729594 8.0110879284664520 8.2694350660225915
9153 3 -2.0 33.6001512560520297 9.9799585452988531 7.3898070634631576
9154 3 -2.0 36.4610697528190997 9.2466524830206289 5.7701158987631906
9155 3 -2.0 34.1256957191900625 9.2466524830206289 5.1964865697587657
9156 3 -2.0 35.9355252896810669 9.9799585452988531 7.9634363924675799
9157 3 -2.0 36.4610697528190997 6.7755233739122724 5.7701158987631906
9158 3 -2.0 33.6001512560520297 12.4510876544072104 7.3898070634631576
9159 3 -2.0 35.9355252896810669 12.4510876544072104 7.9634363924675799
9160 3 -2.0 34.1256957191900625 6.7755233739122724 5.1964865697587657
9161 1 2.0 35.3772741480356530 8.0110879284664520 8.8752263602073107
9162 1 2.0 34.6839468608354764 11.2155230998530318 13.0579785768365984
9163 1 2.0 37.0193208944645136 11.2155230998530318 11.0685468539117036
9164 1 2.0 33.0419001144066158 8.0110879284664520 10.8646580831322090
9165 2 4.0 32.6952364708065275 9.6133055141597410 8.7732819748175643
9166 2 4.0 35.0306105044355647 9.6133055141597410 10.9666024685219554
9167 2 4.0 32.6952364708065275 6.4088703427731613 8.7732819748175643
9168 2 4.0 35.0306105044355647 6.4088703427731613 10.9666024685219554
9169 3 -2.0 34.8722242668439222 8.0110879284664520 11.4704493773169283
9170 3 -2.0 35.1889967420272072 11.2155230998530318 10.4627555597269826
9171 3 -2.0 32.8536227083981700 11.2155230998530318 9.2771288836125372
9172 3 -2.0 37.2075983004729594 8.0110879284664520 12.6560760534313737
9173 3 -2.0 33.6001512560520297 9.9799585452988531 11.7764480508719398
9174 3 -2.0 36.4610697528190997 9.2466524830206289 10.1567568861719728
9175 3 -2.0 34.1256957191900625 9.2466524830206289 9.5831275571675469
9176 3 -2.0 35.9355252896810669 9.9799585452988531 12.3500773798763621
9177 3 -2.0 36.4610697528190997 6.7755233739122724 10.1567568861719728
9178 3 -2.0 33.6001512560520297 12.4510876544072104 11.7764480508719398
9179 3 -2.0 35.9355252896810669 12.4510876544072104 12.3500773798763621
9180 3 -2.0 34.1256957191900625 6.7755233739122724 9.5831275571675469
9181 1 2.0 35.3772741480356530 8.0110879284664520 13.2618673476160929
9182 1 2.0 34.6839468608354764 11.2155230998530318 17.4446195642453823
9183 1 2.0 37.0193208944645136 11.2155230998530318 15.4551878413204857
9184 1 2.0 33.0419001144066158 8.0110879284664520 15.2512990705409912
9185 2 4.0 32.6952364708065275 9.6133055141597410 13.1599229622263465
9186 2 4.0 35.0306105044355647 9.6133055141597410 15.3532434559307376
9187 2 4.0 32.6952364708065275 6.4088703427731613 13.1599229622263465
9188 2 4.0 35.0306105044355647 6.4088703427731613 15.3532434559307376
9189 3 -2.0 34.8722242668439222 8.0110879284664520 15.8570903647257104
9190 3 -2.0 35.1889967420272072 11.2155230998530318 14.8493965471357647
9191 3 -2.0 32.8536227083981700 11.2155230998530318 13.6637698710213193
9192 3 -2.0 37.2075983004729594 8.0110879284664520 17.0427170408401558
9193 3 -2.0 33.6001512560520297 9.9799585452988531 16.1630890382807237
9194 3 -2.0 36.4610697528190997 9.2466524830206289 14.5433978735807550
9195 3 -2.0 34.1256957191900625 9.2466524830206289 13.9697685445763291
9196 3 -2.0 35.9355252896810669 9.9799585452988531 16.7367183672851425
9197 3 -2.0 36.4610697528190997 6.7755233739122724 14.5433978735807550
9198 3 -2.0 33.6001512560520297 12.4510876544072104 16.1630890382807237
9199 3 -2.0 35.9355252896810669 12.4510876544072104 16.7367183672851425
9200 3 -2.0 34.1256957191900625 6.7755233739122724 13.9697685445763291
9201 1 2.0 35.3772741480356530 8.0110879284664520 17.6485083350248750
9202 1 2.0 34.6839468608354764 11.2155230998530318 21.8312605516541645
9203 1 2.0 37.0193208944645136 11.2155230998530318 19.8418288287292661
9204 1 2.0 33.0419001144066158 8.0110879284664520 19.6379400579497734
9205 2 4.0 32.6952364708065275 9.6133055141597410 17.5465639496351287
9206 2 4.0 35.0306105044355647 9.6133055141597410 19.7398844433395197
9207 2 4.0 32.6952364708065275 6.4088703427731613 17.5465639496351287
9208 2 4.0 35.0306105044355647 6.4088703427731613 19.7398844433395197
9209 3 -2.0 34.8722242668439222 8.0110879284664520 20.2437313521344926
9210 3 -2.0 35.1889967420272072 11.2155230998530318 19.2360375345445433
9211 3 -2.0 32.8536227083981700 11.2155230998530318 18.0504108584301051
9212 3 -2.0 37.2075983004729594 8.0110879284664520 21.4293580282489380
9213 3 -2.0 33.6001512560520297 9.9799585452988531 20.5497300256895024
9214 3 -2.0 36.4610697528190997 9.2466524830206289 18.9300388609895371
9215 3 -2.0 34.1256957191900625 9.2466524830206289 18.3564095319851113
9216 3 -2.0 35.9355252896810669 9.9799585452988531 21.1233593546939282
9217 3 -2.0 36.4610697528190997 6.7755233739122724 18.9300388609895371
9218 3 -2.0 33.6001512560520297 12.4510876544072104 20.5497300256895024
9219 3 -2.0 35.9355252896810669 12.4510876544072104 21.1233593546939282
9220 3 -2.0 34.1256957191900625 6.7755233739122724 18.3564095319851113
9221 1 2.0 35.3772741480356530 8.0110879284664520 22.0351493224336572
9222 1 2.0 34.6839468608354764 11.2155230998530318 26.2179015390629466
9223 1 2.0 37.0193208944645136 11.2155230998530318 24.2284698161380483
9224 1 2.0 33.0419001144066158 8.0110879284664520 24.0245810453585555
9225 2 4.0 32.6952364708065275 9.6133055141597410 21.9332049370439108
9226 2 4.0 35.0306105044355647 9.6133055141597410 24.1265254307483019
9227 2 4.0 32.6952364708065275 6.4088703427731613 21.9332049370439108
9228 2 4.0 35.0306105044355647 6.4088703427731613 24.1265254307483019
9229 3 -2.0 34.8722242668439222 8.0110879284664520 24.6303723395432748
9230 3 -2.0 35.1889967420272072 11.2155230998530318 23.6226785219533255
9231 3 -2.0 32.8536227083981700 11.2155230998530318 22.4370518458388872
9232 3 -2.0 37.2075983004729594 8.0110879284664520 25.8159990156577202
9233 3 -2.0 33.6001512560520297 9.9799585452988531 24.9363710130982845
9234 3 -2.0 36.4610697528190997 9.2466524830206289 23.3166798483983193
9235 3 -2.0 34.1256957191900625 9.2466524830206289 22.7430505193938934
9236 3 -2.0 35.9355252896810669 9.9799585452988531 25.5100003421027104
9237 3 -2.0 36.4610697528190997 6.7755233739122724 23.3166798483983193
9238 3 -2.0 33.6001512560520297 12.4510876544072104 24.9363710130982845
9239 3 -2.0 35.9355252896810669 12.4510876544072104 25.5100003421027104
9240 3 -2.0 34.1256957191900625 6.7755233739122724 22.7430505193938934
9241 1 2.0 35.3772741480356530 8.0110879284664520 26.4217903098424394
9242 1 2.0 34.6839468608354764 11.2155230998530318 30.6045425264717288
9243 1 2.0 37.0193208944645136 11.2155230998530318 28.6151108035468305
9244 1 2.0 33.0419001144066158 8.0110879284664520 28.4112220327673377
9245 2 4.0 32.6952364708065275 9.6133055141597410 26.3198459244526930
9246 2 4.0 35.0306105044355647 9.6133055141597410 28.5131664181570841
9247 2 4.0 32.6952364708065275 6.4088703427731613 26.3198459244526930
9248 2 4.0 35.0306105044355647 6.4088703427731613 28.5131664181570841
9249 3 -2.0 34.8722242668439222 8.0110879284664520 29.0170133269520569
9250 3 -2.0 35.1889967420272072 11.2155230998530318 28.0093195093621077
9251 3 -2.0 32.8536227083981700 11.2155230998530318 26.8236928332476694
9252 3 -2.0 37.2075983004729594 8.0110879284664520 30.2026400030665023
9253 3 -2.0 33.6001512560520297 9.9799585452988531 29.3230120005070667
9254 3 -2.0 36.4610697528190997 9.2466524830206289 27.7033208358071015
9255 3 -2.0 34.1256957191900625 9.2466524830206289 27.1296915068026756
9256 3 -2.0 35.9355252896810669 9.9799585452988531 29.8966413295114926
9257 3 -2.0 36.4610697528190997 6.7755233739122724 27.7033208358071015
9258 3 -2.0 33.6001512560520297 12.4510876544072104 29.3230120005070667
9259 3 -2.0 35.9355252896810669 12.4510876544072104 29.8966413295114926
9260 3 -2.0 34.1256957191900625 6.7755233739122724 27.1296915068026756
9261 1 2.0 35.3772741480356530 8.0110879284664520 30.8084312972512215
9262 1 2.0 34.6839468608354764 11.2155230998530318 34.9911835138805074
9263 1 2.0 37.0193208944645136 11.2155230998530318 33.0017517909556162
9264 1 2.0 33.0419001144066158 8.0110879284664520 32.7978630201761163
9265 2 4.0 32.6952364708065275 9.6133055141597410 30.7064869118614752
9266 2 4.0 35.0306105044355647 9.6133055141597410 32.8998074055658662
9267 2 4.0 32.6952364708065275 6.4088703427731613 30.7064869118614752
9268 2 4.0 35.0306105044355647 6.4088703427731613 32.8998074055658662
9269 3 -2.0 34.8722242668439222 8.0110879284664520 33.4036543143608355
9270 3 -2.0 35.1889967420272072 11.2155230998530318 32.3959604967708898
9271 3 -2.0 32.8536227083981700 11.2155230998530318 31.2103338206564516
9272 3 -2.0 37.2075983004729594 8.0110879284664520 34.5892809904752880
9273 3 -2.0 33.6001512560520297 9.9799585452988531 33.7096529879158524
9274 3 -2.0 36.4610697528190997 9.2466524830206289 32.0899618232158801
9275 3 -2.0 34.1256957191900625 9.2466524830206289 31.5163324942114578
9276 3 -2.0 35.9355252896810669 9.9799585452988531 34.2832823169202712
9277 3 -2.0 36.4610697528190997 6.7755233739122724 32.0899618232158801
9278 3 -2.0 33.6001512560520297 12.4510876544072104 33.7096529879158524
9279 3 -2.0 35.9355252896810669 12.4510876544072104 34.2832823169202712
9280 3 -2.0 34.1256957191900625 6.7755233739122724 31.5163324942114578
9281 1 2.0 35.3772741480356530 14.4199582712396133 0.1019443853897463
9282 1 2.0 34.6839468608354764 17.6243934426261930 4.2846966020190349
9283 1 2.0 37.0193208944645136 17.6243934426261930 2.2952648790941383
9284 1 2.0 33.0419001144066158 14.4199582712396133 2.0913761083146447
9285 2 4.0 32.6952364708065275 16.0221758569329040 0.0000000000000000
9286 2 4.0 35.0306105044355647 16.0221758569329040 2.1933204937043911
9287 2 4.0 32.6952364708065275 12.8177406855463225 0.0000000000000000
9288 2 4.0 35.0306105044355647 12.8177406855463225 2.1933204937043911
9289 3 -2.0 34.8722242668439222 14.4199582712396133 2.6971674024993644
9290 3 -2.0 35.1889967420272072 17.6243934426261930 1.6894735849094176
9291 3 -2.0 32.8536227083981700 17.6243934426261930 0.5038469087949736
9292 3 -2.0 37.2075983004729594 14.4199582712396133 3.8827940786138089
9293 3 -2.0 33.6001512560520297 16.3888288880720161 3.0031660760543750
9294 3 -2.0 36.4610697528190997 15.6555228257937884 1.3834749113544080
9295 3 -2.0 34.1256957191900625 15.6555228257937884 0.8098455823499836
9296 3 -2.0 35.9355252896810669 16.3888288880720161 3.5767954050587982
9297 3 -2.0 36.4610697528190997 13.1843937166854346 1.3834749113544080
9298 3 -2.0 33.6001512560520297 18.8599579971803735 3.0031660760543750
9299 3 -2.0 35.9355252896810669 18.8599579971803735 3.5767954050587982
9300 3 -2.0 34.1256957191900625 13.1843937166854346 0.8098455823499836
9301 1 2.0 35.3772741480356530 14.4199582712396133 4.4885853727985285
9302 1 2.0 34.6839468608354764 17.6243934426261930 8.6713375894278162
9303 1 2.0 37.0193208944645136 17.6243934426261930 6.6819058665029205
9304 1 2.0 33.0419001144066158 14.4199582712396133 6.4780170957234269
9305 2 4.0 32.6952364708065275 16.0221758569329040 4.3866409874087822
9306 2 4.0 35.0306105044355647 16.0221758569329040 6.5799614811131732
9307 2 4.0 32.6952364708065275 12.8177406855463225 4.3866409874087822
9308 2 4.0 35.0306105044355647 12.8177406855463225 6.5799614811131732
9309 3 -2.0 34.8722242668439222 14.4199582712396133 7.0838083899081470
9310 3 -2.0 35.1889967420272072 17.6243934426261930 6.0761145723181995
9311 3 -2.0 32.8536227083981700 17.6243934426261930 4.8904878962037559
9312 3 -2.0 37.2075983004729594 14.4199582712396133 8.2694350660225915
9313 3 -2.0 33.6001512560520297 16.3888288880720161 7.3898070634631576
9314 3 -2.0 36.4610697528190997 15.6555228257937884 5.7701158987631906
9315 3 -2.0 34.1256957191900625 15.6555228257937884 5.1964865697587657
9316 3 -2.0 35.9355252896810669 16.3888288880720161 7.9634363924675799
9317 3 -2.0 36.4610697528190997 13.1843937166854346 5.7701158987631906
9318 3 -2.0 33.6001512560520297 18.8599579971803735 7.3898070634631576
9319 3 -2.0 35.9355252896810669 18.8599579971803735 7.9634363924675799
9320 3 -2.0 34.1256957191900625 13.1843937166854346 5.1964865697587657
9321 1 2.0 35.3772741480356530 14.4199582712396133 8.8752263602073107
9322 1 2.0 34.6839468608354764 17.6243934426261930 13.0579785768365984
9323 1 2.0 37.0193208944645136 17.6243934426261930 11.0685468539117036
9324 1 2.0 33.0419001144066158 14.4199582712396133 10.8646580831322090
9325 2 4.0 32.6952364708065275 16.0221758569329040 8.7732819748175643
9326 2 4.0 35.0306105044355647 16.0221758569329040 10.9666024685219554
9327 2 4.0 32.6952364708065275 12.8177406855463225 8.7732819748175643
9328 2 4.0 35.0306105044355647 12.8177406855463225 10.9666024685219554
9329 3 -2.0 34.8722242668439222 14.4199582712396133 11.4704493773169283
9330 3 -2.0 35.1889967420272072 17.6243934426261930 10.4627555597269826
9331 3 -2.0 32.8536227083981700 17.6243934426261930 9.2771288836125372
9332 3 -2.0 37.2075983004729594 14.4199582712396133 12.6560760534313737
9333 3 -2.0 33.6001512560520297 16.3888288880720161 11.7764480508719398
9334 3 -2.0 36.4610697528190997 15.6555228257937884 10.1567568861719728
9335 3 -2.0 34.1256957191900625 15.6555228257937884 9.5831275571675469
9336 3 -2.0 35.9355252896810669 16.3888288880720161 12.3500773798763621
9337 3 -2.0 36.4610697528190997 13.1843937166854346 10.1567568861719728
9338 3 -2.0 33.6001512560520297 18.8599579971803735 11.7764480508719398
9339 3 -2.0 35.9355252896810669 18.8599579971803735 12.3500773798763621
9340 3 -2.0 34.1256957191900625 13.1843937166854346 9.5831275571675469
9341 1 2.0 35.3772741480356530 14.4199582712396133 13.2618673476160929
9342 1 2.0 34.6839468608354764 17.6243934426261930 17.4446195642453823
9343 1 2.0 37.0193208944645136 17.6243934426261930 15.4551878413204857
9344 1 2.0 33.0419001144066158 14.4199582712396133 15.2512990705409912
9345 2 4.0 32.6952364708065275 16.0221758569329040 13.1599229622263465
9346 2 4.0 35.0306105044355647 16.0221758569329040 15.3532434559307376
9347 2 4.0 32.6952364708065275 12.8177406855463225 13.1599229622263465
9348 2 4.0 35.0306105044355647 12.8177406855463225 15.3532434559307376
9349 3 -2.0 34.8722242668439222 14.4199582712396133 15.8570903647257104
9350 3 -2.0 35.1889967420272072 17.6243934426261930 14.8493965471357647
9351 3 -2.0 32.8536227083981700 17.6243934426261930 13.6637698710213193
9352 3 -2.0 37.2075983004729594 14.4199582712396133 17.0427170408401558
9353 3 -2.0 33.6001512560520297 16.3888288880720161 16.1630890382807237
9354 3 -2.0 36.4610697528190997 15.6555228257937884 14.5433978735807550
9355 3 -2.0 34.1256957191900625 15.6555228257937884 13.9697685445763291
9356 3 -2.0 35.9355252896810669 16.3888288880720161 16.7367183672851425
9357 3 -2.0 36.4610697528190997 13.1843937166854346 14.5433978735807550
9358 3 -2.0 33.6001512560520297 18.8599579971803735 16.1630890382807237
9359 3 -2.0 35.9355252896810669 18.8599579971803735 16.7367183672851425
9360 3 -2.0 34.1256957191900625 13.1843937166854346 13.9697685445763291
9361 1 2.0 35.3772741480356530 14.4199582712396133 17.6485083350248750
9362 1 2.0 34.6839468608354764 17.6243934426261930 21.8312605516541645
9363 1 2.0 37.0193208944645136 17.6243934426261930 19.8418288287292661
9364 1 2.0 33.0419001144066158 14.4199582712396133 19.6379400579497734
9365 2 4.0 32.6952364708065275 16.0221758569329040 17.5465639496351287
9366 2 4.0 35.0306105044355647 16.0221758569329040 19.7398844433395197
9367 2 4.0 32.6952364708065275 12.8177406855463225 17.5465639496351287
9368 2 4.0 35.0306105044355647 12.8177406855463225 19.7398844433395197
9369 3 -2.0 34.8722242668439222 14.4199582712396133 20.2437313521344926
9370 3 -2.0 35.1889967420272072 17.6243934426261930 19.2360375345445433
9371 3 -2.0 32.8536227083981700 17.6243934426261930 18.0504108584301051
9372 3 -2.0 37.2075983004729594 14.4199582712396133 21.4293580282489380
9373 3 -2.0 33.6001512560520297 16.3888288880720161 20.5497300256895024
9374 3 -2.0 36.4610697528190997 15.6555228257937884 18.9300388609895371
9375 3 -2.0 34.1256957191900625 15.6555228257937884 18.3564095319851113
9376 3 -2.0 35.9355252896810669 16.3888288880720161 21.1233593546939282
9377 3 -2.0 36.4610697528190997 13.1843937166854346 18.9300388609895371
9378 3 -2.0 33.6001512560520297 18.8599579971803735 20.5497300256895024
9379 3 -2.0 35.9355252896810669 18.8599579971803735 21.1233593546939282
9380 3 -2.0 34.1256957191900625 13.1843937166854346 18.3564095319851113
9381 1 2.0 35.3772741480356530 14.4199582712396133 22.0351493224336572
9382 1 2.0 34.6839468608354764 17.6243934426261930 26.2179015390629466
9383 1 2.0 37.0193208944645136 17.6243934426261930 24.2284698161380483
9384 1 2.0 33.0419001144066158 14.4199582712396133 24.0245810453585555
9385 2 4.0 32.6952364708065275 16.0221758569329040 21.9332049370439108
9386 2 4.0 35.0306105044355647 16.0221758569329040 24.1265254307483019
9387 2 4.0 32.6952364708065275 12.8177406855463225 21.9332049370439108
9388 2 4.0 35.0306105044355647 12.8177406855463225 24.1265254307483019
9389 3 -2.0 34.8722242668439222 14.4199582712396133 24.6303723395432748
9390 3 -2.0 35.1889967420272072 17.6243934426261930 23.6226785219533255
9391 3 -2.0 32.8536227083981700 17.6243934426261930 22.4370518458388872
9392 3 -2.0 37.2075983004729594 14.4199582712396133 25.8159990156577202
9393 3 -2.0 33.6001512560520297 16.3888288880720161 24.9363710130982845
9394 3 -2.0 36.4610697528190997 15.6555228257937884 23.3166798483983193
9395 3 -2.0 34.1256957191900625 15.6555228257937884 22.7430505193938934
9396 3 -2.0 35.9355252896810669 16.3888288880720161 25.5100003421027104
9397 3 -2.0 36.4610697528190997 13.1843937166854346 23.3166798483983193
9398 3 -2.0 33.6001512560520297 18.8599579971803735 24.9363710130982845
9399 3 -2.0 35.9355252896810669 18.8599579971803735 25.5100003421027104
9400 3 -2.0 34.1256957191900625 13.1843937166854346 22.7430505193938934
9401 1 2.0 35.3772741480356530 14.4199582712396133 26.4217903098424394
9402 1 2.0 34.6839468608354764 17.6243934426261930 30.6045425264717288
9403 1 2.0 37.0193208944645136 17.6243934426261930 28.6151108035468305
9404 1 2.0 33.0419001144066158 14.4199582712396133 28.4112220327673377
9405 2 4.0 32.6952364708065275 16.0221758569329040 26.3198459244526930
9406 2 4.0 35.0306105044355647 16.0221758569329040 28.5131664181570841
9407 2 4.0 32.6952364708065275 12.8177406855463225 26.3198459244526930
9408 2 4.0 35.0306105044355647 12.8177406855463225 28.5131664181570841
9409 3 -2.0 34.8722242668439222 14.4199582712396133 29.0170133269520569
9410 3 -2.0 35.1889967420272072 17.6243934426261930 28.0093195093621077
9411 3 -2.0 32.8536227083981700 17.6243934426261930 26.8236928332476694
9412 3 -2.0 37.2075983004729594 14.4199582712396133 30.2026400030665023
9413 3 -2.0 33.6001512560520297 16.3888288880720161 29.3230120005070667
9414 3 -2.0 36.4610697528190997 15.6555228257937884 27.7033208358071015
9415 3 -2.0 34.1256957191900625 15.6555228257937884 27.1296915068026756
9416 3 -2.0 35.9355252896810669 16.3888288880720161 29.8966413295114926
9417 3 -2.0 36.4610697528190997 13.1843937166854346 27.7033208358071015
9418 3 -2.0 33.6001512560520297 18.8599579971803735 29.3230120005070667
9419 3 -2.0 35.9355252896810669 18.8599579971803735 29.8966413295114926
9420 3 -2.0 34.1256957191900625 13.1843937166854346 27.1296915068026756
9421 1 2.0 35.3772741480356530 14.4199582712396133 30.8084312972512215
9422 1 2.0 34.6839468608354764 17.6243934426261930 34.9911835138805074
9423 1 2.0 37.0193208944645136 17.6243934426261930 33.0017517909556162
9424 1 2.0 33.0419001144066158 14.4199582712396133 32.7978630201761163
9425 2 4.0 32.6952364708065275 16.0221758569329040 30.7064869118614752
9426 2 4.0 35.0306105044355647 16.0221758569329040 32.8998074055658662
9427 2 4.0 32.6952364708065275 12.8177406855463225 30.7064869118614752
9428 2 4.0 35.0306105044355647 12.8177406855463225 32.8998074055658662
9429 3 -2.0 34.8722242668439222 14.4199582712396133 33.4036543143608355
9430 3 -2.0 35.1889967420272072 17.6243934426261930 32.3959604967708898
9431 3 -2.0 32.8536227083981700 17.6243934426261930 31.2103338206564516
9432 3 -2.0 37.2075983004729594 14.4199582712396133 34.5892809904752880
9433 3 -2.0 33.6001512560520297 16.3888288880720161 33.7096529879158524
9434 3 -2.0 36.4610697528190997 15.6555228257937884 32.0899618232158801
9435 3 -2.0 34.1256957191900625 15.6555228257937884 31.5163324942114578
9436 3 -2.0 35.9355252896810669 16.3888288880720161 34.2832823169202712
9437 3 -2.0 36.4610697528190997 13.1843937166854346 32.0899618232158801
9438 3 -2.0 33.6001512560520297 18.8599579971803735 33.7096529879158524
9439 3 -2.0 35.9355252896810669 18.8599579971803735 34.2832823169202712
9440 3 -2.0 34.1256957191900625 13.1843937166854346 31.5163324942114578
9441 1 2.0 35.3772741480356530 20.8288286140127745 0.1019443853897463
9442 1 2.0 34.6839468608354764 24.0332637853993560 4.2846966020190349
9443 1 2.0 37.0193208944645136 24.0332637853993560 2.2952648790941383
9444 1 2.0 33.0419001144066158 20.8288286140127745 2.0913761083146447
9445 2 4.0 32.6952364708065275 22.4310461997060635 0.0000000000000000
9446 2 4.0 35.0306105044355647 22.4310461997060635 2.1933204937043911
9447 2 4.0 32.6952364708065275 19.2266110283194820 0.0000000000000000
9448 2 4.0 35.0306105044355647 19.2266110283194820 2.1933204937043911
9449 3 -2.0 34.8722242668439222 20.8288286140127745 2.6971674024993644
9450 3 -2.0 35.1889967420272072 24.0332637853993560 1.6894735849094176
9451 3 -2.0 32.8536227083981700 24.0332637853993560 0.5038469087949736
9452 3 -2.0 37.2075983004729594 20.8288286140127745 3.8827940786138089
9453 3 -2.0 33.6001512560520297 22.7976992308451756 3.0031660760543750
9454 3 -2.0 36.4610697528190997 22.0643931685669514 1.3834749113544080
9455 3 -2.0 34.1256957191900625 22.0643931685669514 0.8098455823499836
9456 3 -2.0 35.9355252896810669 22.7976992308451756 3.5767954050587982
9457 3 -2.0 36.4610697528190997 19.5932640594585941 1.3834749113544080
9458 3 -2.0 33.6001512560520297 25.2688283399535329 3.0031660760543750
9459 3 -2.0 35.9355252896810669 25.2688283399535329 3.5767954050587982
9460 3 -2.0 34.1256957191900625 19.5932640594585941 0.8098455823499836
9461 1 2.0 35.3772741480356530 20.8288286140127745 4.4885853727985285
9462 1 2.0 34.6839468608354764 24.0332637853993560 8.6713375894278162
9463 1 2.0 37.0193208944645136 24.0332637853993560 6.6819058665029205
9464 1 2.0 33.0419001144066158 20.8288286140127745 6.4780170957234269
9465 2 4.0 32.6952364708065275 22.4310461997060635 4.3866409874087822
9466 2 4.0 35.0306105044355647 22.4310461997060635 6.5799614811131732
9467 2 4.0 32.6952364708065275 19.2266110283194820 4.3866409874087822
9468 2 4.0 35.0306105044355647 19.2266110283194820 6.5799614811131732
9469 3 -2.0 34.8722242668439222 20.8288286140127745 7.0838083899081470
9470 3 -2.0 35.1889967420272072 24.0332637853993560 6.0761145723181995
9471 3 -2.0 32.8536227083981700 24.0332637853993560 4.8904878962037559
9472 3 -2.0 37.2075983004729594 20.8288286140127745 8.2694350660225915
9473 3 -2.0 33.6001512560520297 22.7976992308451756 7.3898070634631576
9474 3 -2.0 36.4610697528190997 22.0643931685669514 5.7701158987631906
9475 3 -2.0 34.1256957191900625 22.0643931685669514 5.1964865697587657
9476 3 -2.0 35.9355252896810669 22.7976992308451756 7.9634363924675799
9477 3 -2.0 36.4610697528190997 19.5932640594585941 5.7701158987631906
9478 3 -2.0 33.6001512560520297 25.2688283399535329 7.3898070634631576
9479 3 -2.0 35.9355252896810669 25.2688283399535329 7.9634363924675799
9480 3 -2.0 34.1256957191900625 19.5932640594585941 5.1964865697587657
9481 1 2.0 35.3772741480356530 20.8288286140127745 8.8752263602073107
9482 1 2.0 34.6839468608354764 24.0332637853993560 13.0579785768365984
9483 1 2.0 37.0193208944645136 24.0332637853993560 11.0685468539117036
9484 1 2.0 33.0419001144066158 20.8288286140127745 10.8646580831322090
9485 2 4.0 32.6952364708065275 22.4310461997060635 8.7732819748175643
9486 2 4.0 35.0306105044355647 22.4310461997060635 10.9666024685219554
9487 2 4.0 32.6952364708065275 19.2266110283194820 8.7732819748175643
9488 2 4.0 35.0306105044355647 19.2266110283194820 10.9666024685219554
9489 3 -2.0 34.8722242668439222 20.8288286140127745 11.4704493773169283
9490 3 -2.0 35.1889967420272072 24.0332637853993560 10.4627555597269826
9491 3 -2.0 32.8536227083981700 24.0332637853993560 9.2771288836125372
9492 3 -2.0 37.2075983004729594 20.8288286140127745 12.6560760534313737
9493 3 -2.0 33.6001512560520297 22.7976992308451756 11.7764480508719398
9494 3 -2.0 36.4610697528190997 22.0643931685669514 10.1567568861719728
9495 3 -2.0 34.1256957191900625 22.0643931685669514 9.5831275571675469
9496 3 -2.0 35.9355252896810669 22.7976992308451756 12.3500773798763621
9497 3 -2.0 36.4610697528190997 19.5932640594585941 10.1567568861719728
9498 3 -2.0 33.6001512560520297 25.2688283399535329 11.7764480508719398
9499 3 -2.0 35.9355252896810669 25.2688283399535329 12.3500773798763621
9500 3 -2.0 34.1256957191900625 19.5932640594585941 9.5831275571675469
9501 1 2.0 35.3772741480356530 20.8288286140127745 13.2618673476160929
9502 1 2.0 34.6839468608354764 24.0332637853993560 17.4446195642453823
9503 1 2.0 37.0193208944645136 24.0332637853993560 15.4551878413204857
9504 1 2.0 33.0419001144066158 20.8288286140127745 15.2512990705409912
9505 2 4.0 32.6952364708065275 22.4310461997060635 13.1599229622263465
9506 2 4.0 35.0306105044355647 22.4310461997060635 15.3532434559307376
9507 2 4.0 32.6952364708065275 19.2266110283194820 13.1599229622263465
9508 2 4.0 35.0306105044355647 19.2266110283194820 15.3532434559307376
9509 3 -2.0 34.8722242668439222 20.8288286140127745 15.8570903647257104
9510 3 -2.0 35.1889967420272072 24.0332637853993560 14.8493965471357647
9511 3 -2.0 32.8536227083981700 24.0332637853993560 13.6637698710213193
9512 3 -2.0 37.2075983004729594 20.8288286140127745 17.0427170408401558
9513 3 -2.0 33.6001512560520297 22.7976992308451756 16.1630890382807237
9514 3 -2.0 36.4610697528190997 22.0643931685669514 14.5433978735807550
9515 3 -2.0 34.1256957191900625 22.0643931685669514 13.9697685445763291
9516 3 -2.0 35.9355252896810669 22.7976992308451756 16.7367183672851425
9517 3 -2.0 36.4610697528190997 19.5932640594585941 14.5433978735807550
9518 3 -2.0 33.6001512560520297 25.2688283399535329 16.1630890382807237
9519 3 -2.0 35.9355252896810669 25.2688283399535329 16.7367183672851425
9520 3 -2.0 34.1256957191900625 19.5932640594585941 13.9697685445763291
9521 1 2.0 35.3772741480356530 20.8288286140127745 17.6485083350248750
9522 1 2.0 34.6839468608354764 24.0332637853993560 21.8312605516541645
9523 1 2.0 37.0193208944645136 24.0332637853993560 19.8418288287292661
9524 1 2.0 33.0419001144066158 20.8288286140127745 19.6379400579497734
9525 2 4.0 32.6952364708065275 22.4310461997060635 17.5465639496351287
9526 2 4.0 35.0306105044355647 22.4310461997060635 19.7398844433395197
9527 2 4.0 32.6952364708065275 19.2266110283194820 17.5465639496351287
9528 2 4.0 35.0306105044355647 19.2266110283194820 19.7398844433395197
9529 3 -2.0 34.8722242668439222 20.8288286140127745 20.2437313521344926
9530 3 -2.0 35.1889967420272072 24.0332637853993560 19.2360375345445433
9531 3 -2.0 32.8536227083981700 24.0332637853993560 18.0504108584301051
9532 3 -2.0 37.2075983004729594 20.8288286140127745 21.4293580282489380
9533 3 -2.0 33.6001512560520297 22.7976992308451756 20.5497300256895024
9534 3 -2.0 36.4610697528190997 22.0643931685669514 18.9300388609895371
9535 3 -2.0 34.1256957191900625 22.0643931685669514 18.3564095319851113
9536 3 -2.0 35.9355252896810669 22.7976992308451756 21.1233593546939282
9537 3 -2.0 36.4610697528190997 19.5932640594585941 18.9300388609895371
9538 3 -2.0 33.6001512560520297 25.2688283399535329 20.5497300256895024
9539 3 -2.0 35.9355252896810669 25.2688283399535329 21.1233593546939282
9540 3 -2.0 34.1256957191900625 19.5932640594585941 18.3564095319851113
9541 1 2.0 35.3772741480356530 20.8288286140127745 22.0351493224336572
9542 1 2.0 34.6839468608354764 24.0332637853993560 26.2179015390629466
9543 1 2.0 37.0193208944645136 24.0332637853993560 24.2284698161380483
9544 1 2.0 33.0419001144066158 20.8288286140127745 24.0245810453585555
9545 2 4.0 32.6952364708065275 22.4310461997060635 21.9332049370439108
9546 2 4.0 35.0306105044355647 22.4310461997060635 24.1265254307483019
9547 2 4.0 32.6952364708065275 19.2266110283194820 21.9332049370439108
9548 2 4.0 35.0306105044355647 19.2266110283194820 24.1265254307483019
9549 3 -2.0 34.8722242668439222 20.8288286140127745 24.6303723395432748
9550 3 -2.0 35.1889967420272072 24.0332637853993560 23.6226785219533255
9551 3 -2.0 32.8536227083981700 24.0332637853993560 22.4370518458388872
9552 3 -2.0 37.2075983004729594 20.8288286140127745 25.8159990156577202
9553 3 -2.0 33.6001512560520297 22.7976992308451756 24.9363710130982845
9554 3 -2.0 36.4610697528190997 22.0643931685669514 23.3166798483983193
9555 3 -2.0 34.1256957191900625 22.0643931685669514 22.7430505193938934
9556 3 -2.0 35.9355252896810669 22.7976992308451756 25.5100003421027104
9557 3 -2.0 36.4610697528190997 19.5932640594585941 23.3166798483983193
9558 3 -2.0 33.6001512560520297 25.2688283399535329 24.9363710130982845
9559 3 -2.0 35.9355252896810669 25.2688283399535329 25.5100003421027104
9560 3 -2.0 34.1256957191900625 19.5932640594585941 22.7430505193938934
9561 1 2.0 35.3772741480356530 20.8288286140127745 26.4217903098424394
9562 1 2.0 34.6839468608354764 24.0332637853993560 30.6045425264717288
9563 1 2.0 37.0193208944645136 24.0332637853993560 28.6151108035468305
9564 1 2.0 33.0419001144066158 20.8288286140127745 28.4112220327673377
9565 2 4.0 32.6952364708065275 22.4310461997060635 26.3198459244526930
9566 2 4.0 35.0306105044355647 22.4310461997060635 28.5131664181570841
9567 2 4.0 32.6952364708065275 19.2266110283194820 26.3198459244526930
9568 2 4.0 35.0306105044355647 19.2266110283194820 28.5131664181570841
9569 3 -2.0 34.8722242668439222 20.8288286140127745 29.0170133269520569
9570 3 -2.0 35.1889967420272072 24.0332637853993560 28.0093195093621077
9571 3 -2.0 32.8536227083981700 24.0332637853993560 26.8236928332476694
9572 3 -2.0 37.2075983004729594 20.8288286140127745 30.2026400030665023
9573 3 -2.0 33.6001512560520297 22.7976992308451756 29.3230120005070667
9574 3 -2.0 36.4610697528190997 22.0643931685669514 27.7033208358071015
9575 3 -2.0 34.1256957191900625 22.0643931685669514 27.1296915068026756
9576 3 -2.0 35.9355252896810669 22.7976992308451756 29.8966413295114926
9577 3 -2.0 36.4610697528190997 19.5932640594585941 27.7033208358071015
9578 3 -2.0 33.6001512560520297 25.2688283399535329 29.3230120005070667
9579 3 -2.0 35.9355252896810669 25.2688283399535329 29.8966413295114926
9580 3 -2.0 34.1256957191900625 19.5932640594585941 27.1296915068026756
9581 1 2.0 35.3772741480356530 20.8288286140127745 30.8084312972512215
9582 1 2.0 34.6839468608354764 24.0332637853993560 34.9911835138805074
9583 1 2.0 37.0193208944645136 24.0332637853993560 33.0017517909556162
9584 1 2.0 33.0419001144066158 20.8288286140127745 32.7978630201761163
9585 2 4.0 32.6952364708065275 22.4310461997060635 30.7064869118614752
9586 2 4.0 35.0306105044355647 22.4310461997060635 32.8998074055658662
9587 2 4.0 32.6952364708065275 19.2266110283194820 30.7064869118614752
9588 2 4.0 35.0306105044355647 19.2266110283194820 32.8998074055658662
9589 3 -2.0 34.8722242668439222 20.8288286140127745 33.4036543143608355
9590 3 -2.0 35.1889967420272072 24.0332637853993560 32.3959604967708898
9591 3 -2.0 32.8536227083981700 24.0332637853993560 31.2103338206564516
9592 3 -2.0 37.2075983004729594 20.8288286140127745 34.5892809904752880
9593 3 -2.0 33.6001512560520297 22.7976992308451756 33.7096529879158524
9594 3 -2.0 36.4610697528190997 22.0643931685669514 32.0899618232158801
9595 3 -2.0 34.1256957191900625 22.0643931685669514 31.5163324942114578
9596 3 -2.0 35.9355252896810669 22.7976992308451756 34.2832823169202712
9597 3 -2.0 36.4610697528190997 19.5932640594585941 32.0899618232158801
9598 3 -2.0 33.6001512560520297 25.2688283399535329 33.7096529879158524
9599 3 -2.0 35.9355252896810669 25.2688283399535329 34.2832823169202712
9600 3 -2.0 34.1256957191900625 19.5932640594585941 31.5163324942114578
9601 1 2.0 35.3772741480356530 27.2376989567859340 0.1019443853897463
9602 1 2.0 34.6839468608354764 30.4421341281725155 4.2846966020190349
9603 1 2.0 37.0193208944645136 30.4421341281725155 2.2952648790941383
9604 1 2.0 33.0419001144066158 27.2376989567859340 2.0913761083146447
9605 2 4.0 32.6952364708065275 28.8399165424792265 0.0000000000000000
9606 2 4.0 35.0306105044355647 28.8399165424792265 2.1933204937043911
9607 2 4.0 32.6952364708065275 25.6354813710926450 0.0000000000000000
9608 2 4.0 35.0306105044355647 25.6354813710926450 2.1933204937043911
9609 3 -2.0 34.8722242668439222 27.2376989567859340 2.6971674024993644
9610 3 -2.0 35.1889967420272072 30.4421341281725155 1.6894735849094176
9611 3 -2.0 32.8536227083981700 30.4421341281725155 0.5038469087949736
9612 3 -2.0 37.2075983004729594 27.2376989567859340 3.8827940786138089
9613 3 -2.0 33.6001512560520297 29.2065695736183386 3.0031660760543750
9614 3 -2.0 36.4610697528190997 28.4732635113401109 1.3834749113544080
9615 3 -2.0 34.1256957191900625 28.4732635113401109 0.8098455823499836
9616 3 -2.0 35.9355252896810669 29.2065695736183386 3.5767954050587982
9617 3 -2.0 36.4610697528190997 26.0021344022317606 1.3834749113544080
9618 3 -2.0 33.6001512560520297 31.6776986827266924 3.0031660760543750
9619 3 -2.0 35.9355252896810669 31.6776986827266924 3.5767954050587982
9620 3 -2.0 34.1256957191900625 26.0021344022317606 0.8098455823499836
9621 1 2.0 35.3772741480356530 27.2376989567859340 4.4885853727985285
9622 1 2.0 34.6839468608354764 30.4421341281725155 8.6713375894278162
9623 1 2.0 37.0193208944645136 30.4421341281725155 6.6819058665029205
9624 1 2.0 33.0419001144066158 27.2376989567859340 6.4780170957234269
9625 2 4.0 32.6952364708065275 28.8399165424792265 4.3866409874087822
9626 2 4.0 35.0306105044355647 28.8399165424792265 6.5799614811131732
9627 2 4.0 32.6952364708065275 25.6354813710926450 4.3866409874087822
9628 2 4.0 35.0306105044355647 25.6354813710926450 6.5799614811131732
9629 3 -2.0 34.8722242668439222 27.2376989567859340 7.0838083899081470
9630 3 -2.0 35.1889967420272072 30.4421341281725155 6.0761145723181995
9631 3 -2.0 32.8536227083981700 30.4421341281725155 4.8904878962037559
9632 3 -2.0 37.2075983004729594 27.2376989567859340 8.2694350660225915
9633 3 -2.0 33.6001512560520297 29.2065695736183386 7.3898070634631576
9634 3 -2.0 36.4610697528190997 28.4732635113401109 5.7701158987631906
9635 3 -2.0 34.1256957191900625 28.4732635113401109 5.1964865697587657
9636 3 -2.0 35.9355252896810669 29.2065695736183386 7.9634363924675799
9637 3 -2.0 36.4610697528190997 26.0021344022317606 5.7701158987631906
9638 3 -2.0 33.6001512560520297 31.6776986827266924 7.3898070634631576
9639 3 -2.0 35.9355252896810669 31.6776986827266924 7.9634363924675799
9640 3 -2.0 34.1256957191900625 26.0021344022317606 5.1964865697587657
9641 1 2.0 35.3772741480356530 27.2376989567859340 8.8752263602073107
9642 1 2.0 34.6839468608354764 30.4421341281725155 13.0579785768365984
9643 1 2.0 37.0193208944645136 30.4421341281725155 11.0685468539117036
9644 1 2.0 33.0419001144066158 27.2376989567859340 10.8646580831322090
9645 2 4.0 32.6952364708065275 28.8399165424792265 8.7732819748175643
9646 2 4.0 35.0306105044355647 28.8399165424792265 10.9666024685219554
9647 2 4.0 32.6952364708065275 25.6354813710926450 8.7732819748175643
9648 2 4.0 35.0306105044355647 25.6354813710926450 10.9666024685219554
9649 3 -2.0 34.8722242668439222 27.2376989567859340 11.4704493773169283
9650 3 -2.0 35.1889967420272072 30.4421341281725155 10.4627555597269826
9651 3 -2.0 32.8536227083981700 30.4421341281725155 9.2771288836125372
9652 3 -2.0 37.2075983004729594 27.2376989567859340 12.6560760534313737
9653 3 -2.0 33.6001512560520297 29.2065695736183386 11.7764480508719398
9654 3 -2.0 36.4610697528190997 28.4732635113401109 10.1567568861719728
9655 3 -2.0 34.1256957191900625 28.4732635113401109 9.5831275571675469
9656 3 -2.0 35.9355252896810669 29.2065695736183386 12.3500773798763621
9657 3 -2.0 36.4610697528190997 26.0021344022317606 10.1567568861719728
9658 3 -2.0 33.6001512560520297 31.6776986827266924 11.7764480508719398
9659 3 -2.0 35.9355252896810669 31.6776986827266924 12.3500773798763621
9660 3 -2.0 34.1256957191900625 26.0021344022317606 9.5831275571675469
9661 1 2.0 35.3772741480356530 27.2376989567859340 13.2618673476160929
9662 1 2.0 34.6839468608354764 30.4421341281725155 17.4446195642453823
9663 1 2.0 37.0193208944645136 30.4421341281725155 15.4551878413204857
9664 1 2.0 33.0419001144066158 27.2376989567859340 15.2512990705409912
9665 2 4.0 32.6952364708065275 28.8399165424792265 13.1599229622263465
9666 2 4.0 35.0306105044355647 28.8399165424792265 15.3532434559307376
9667 2 4.0 32.6952364708065275 25.6354813710926450 13.1599229622263465
9668 2 4.0 35.0306105044355647 25.6354813710926450 15.3532434559307376
9669 3 -2.0 34.8722242668439222 27.2376989567859340 15.8570903647257104
9670 3 -2.0 35.1889967420272072 30.4421341281725155 14.8493965471357647
9671 3 -2.0 32.8536227083981700 30.4421341281725155 13.6637698710213193
9672 3 -2.0 37.2075983004729594 27.2376989567859340 17.0427170408401558
9673 3 -2.0 33.6001512560520297 29.2065695736183386 16.1630890382807237
9674 3 -2.0 36.4610697528190997 28.4732635113401109 14.5433978735807550
9675 3 -2.0 34.1256957191900625 28.4732635113401109 13.9697685445763291
9676 3 -2.0 35.9355252896810669 29.2065695736183386 16.7367183672851425
9677 3 -2.0 36.4610697528190997 26.0021344022317606 14.5433978735807550
9678 3 -2.0 33.6001512560520297 31.6776986827266924 16.1630890382807237
9679 3 -2.0 35.9355252896810669 31.6776986827266924 16.7367183672851425
9680 3 -2.0 34.1256957191900625 26.0021344022317606 13.9697685445763291
9681 1 2.0 35.3772741480356530 27.2376989567859340 17.6485083350248750
9682 1 2.0 34.6839468608354764 30.4421341281725155 21.8312605516541645
9683 1 2.0 37.0193208944645136 30.4421341281725155 19.8418288287292661
9684 1 2.0 33.0419001144066158 27.2376989567859340 19.6379400579497734
9685 2 4.0 32.6952364708065275 28.8399165424792265 17.5465639496351287
9686 2 4.0 35.0306105044355647 28.8399165424792265 19.7398844433395197
9687 2 4.0 32.6952364708065275 25.6354813710926450 17.5465639496351287
9688 2 4.0 35.0306105044355647 25.6354813710926450 19.7398844433395197
9689 3 -2.0 34.8722242668439222 27.2376989567859340 20.2437313521344926
9690 3 -2.0 35.1889967420272072 30.4421341281725155 19.2360375345445433
9691 3 -2.0 32.8536227083981700 30.4421341281725155 18.0504108584301051
9692 3 -2.0 37.2075983004729594 27.2376989567859340 21.4293580282489380
9693 3 -2.0 33.6001512560520297 29.2065695736183386 20.5497300256895024
9694 3 -2.0 36.4610697528190997 28.4732635113401109 18.9300388609895371
9695 3 -2.0 34.1256957191900625 28.4732635113401109 18.3564095319851113
9696 3 -2.0 35.9355252896810669 29.2065695736183386 21.1233593546939282
9697 3 -2.0 36.4610697528190997 26.0021344022317606 18.9300388609895371
9698 3 -2.0 33.6001512560520297 31.6776986827266924 20.5497300256895024
9699 3 -2.0 35.9355252896810669 31.6776986827266924 21.1233593546939282
9700 3 -2.0 34.1256957191900625 26.0021344022317606 18.3564095319851113
9701 1 2.0 35.3772741480356530 27.2376989567859340 22.0351493224336572
9702 1 2.0 34.6839468608354764 30.4421341281725155 26.2179015390629466
9703 1 2.0 37.0193208944645136 30.4421341281725155 24.2284698161380483
9704 1 2.0 33.0419001144066158 27.2376989567859340 24.0245810453585555
9705 2 4.0 32.6952364708065275 28.8399165424792265 21.9332049370439108
9706 2 4.0 35.0306105044355647 28.8399165424792265 24.1265254307483019
9707 2 4.0 32.6952364708065275 25.6354813710926450 21.9332049370439108
9708 2 4.0 35.0306105044355647 25.6354813710926450 24.1265254307483019
9709 3 -2.0 34.8722242668439222 27.2376989567859340 24.6303723395432748
9710 3 -2.0 35.1889967420272072 30.4421341281725155 23.6226785219533255
9711 3 -2.0 32.8536227083981700 30.4421341281725155 22.4370518458388872
9712 3 -2.0 37.2075983004729594 27.2376989567859340 25.8159990156577202
9713 3 -2.0 33.6001512560520297 29.2065695736183386 24.9363710130982845
9714 3 -2.0 36.4610697528190997 28.4732635113401109 23.3166798483983193
9715 3 -2.0 34.1256957191900625 28.4732635113401109 22.7430505193938934
9716 3 -2.0 35.9355252896810669 29.2065695736183386 25.5100003421027104
9717 3 -2.0 36.4610697528190997 26.0021344022317606 23.3166798483983193
9718 3 -2.0 33.6001512560520297 31.6776986827266924 24.9363710130982845
9719 3 -2.0 35.9355252896810669 31.6776986827266924 25.5100003421027104
9720 3 -2.0 34.1256957191900625 26.0021344022317606 22.7430505193938934
9721 1 2.0 35.3772741480356530 27.2376989567859340 26.4217903098424394
9722 1 2.0 34.6839468608354764 30.4421341281725155 30.6045425264717288
9723 1 2.0 37.0193208944645136 30.4421341281725155 28.6151108035468305
9724 1 2.0 33.0419001144066158 27.2376989567859340 28.4112220327673377
9725 2 4.0 32.6952364708065275 28.8399165424792265 26.3198459244526930
9726 2 4.0 35.0306105044355647 28.8399165424792265 28.5131664181570841
9727 2 4.0 32.6952364708065275 25.6354813710926450 26.3198459244526930
9728 2 4.0 35.0306105044355647 25.6354813710926450 28.5131664181570841
9729 3 -2.0 34.8722242668439222 27.2376989567859340 29.0170133269520569
9730 3 -2.0 35.1889967420272072 30.4421341281725155 28.0093195093621077
9731 3 -2.0 32.8536227083981700 30.4421341281725155 26.8236928332476694
9732 3 -2.0 37.2075983004729594 27.2376989567859340 30.2026400030665023
9733 3 -2.0 33.6001512560520297 29.2065695736183386 29.3230120005070667
9734 3 -2.0 36.4610697528190997 28.4732635113401109 27.7033208358071015
9735 3 -2.0 34.1256957191900625 28.4732635113401109 27.1296915068026756
9736 3 -2.0 35.9355252896810669 29.2065695736183386 29.8966413295114926
9737 3 -2.0 36.4610697528190997 26.0021344022317606 27.7033208358071015
9738 3 -2.0 33.6001512560520297 31.6776986827266924 29.3230120005070667
9739 3 -2.0 35.9355252896810669 31.6776986827266924 29.8966413295114926
9740 3 -2.0 34.1256957191900625 26.0021344022317606 27.1296915068026756
9741 1 2.0 35.3772741480356530 27.2376989567859340 30.8084312972512215
9742 1 2.0 34.6839468608354764 30.4421341281725155 34.9911835138805074
9743 1 2.0 37.0193208944645136 30.4421341281725155 33.0017517909556162
9744 1 2.0 33.0419001144066158 27.2376989567859340 32.7978630201761163
9745 2 4.0 32.6952364708065275 28.8399165424792265 30.7064869118614752
9746 2 4.0 35.0306105044355647 28.8399165424792265 32.8998074055658662
9747 2 4.0 32.6952364708065275 25.6354813710926450 30.7064869118614752
9748 2 4.0 35.0306105044355647 25.6354813710926450 32.8998074055658662
9749 3 -2.0 34.8722242668439222 27.2376989567859340 33.4036543143608355
9750 3 -2.0 35.1889967420272072 30.4421341281725155 32.3959604967708898
9751 3 -2.0 32.8536227083981700 30.4421341281725155 31.2103338206564516
9752 3 -2.0 37.2075983004729594 27.2376989567859340 34.5892809904752880
9753 3 -2.0 33.6001512560520297 29.2065695736183386 33.7096529879158524
9754 3 -2.0 36.4610697528190997 28.4732635113401109 32.0899618232158801
9755 3 -2.0 34.1256957191900625 28.4732635113401109 31.5163324942114578
9756 3 -2.0 35.9355252896810669 29.2065695736183386 34.2832823169202712
9757 3 -2.0 36.4610697528190997 26.0021344022317606 32.0899618232158801
9758 3 -2.0 33.6001512560520297 31.6776986827266924 33.7096529879158524
9759 3 -2.0 35.9355252896810669 31.6776986827266924 34.2832823169202712
9760 3 -2.0 34.1256957191900625 26.0021344022317606 31.5163324942114578
9761 1 2.0 35.3772741480356530 33.6465692995590970 0.1019443853897463
9762 1 2.0 34.6839468608354764 36.8510044709456750 4.2846966020190349
9763 1 2.0 37.0193208944645136 36.8510044709456750 2.2952648790941383
9764 1 2.0 33.0419001144066158 33.6465692995590970 2.0913761083146447
9765 2 4.0 32.6952364708065275 35.2487868852523860 0.0000000000000000
9766 2 4.0 35.0306105044355647 35.2487868852523860 2.1933204937043911
9767 2 4.0 32.6952364708065275 32.0443517138658081 0.0000000000000000
9768 2 4.0 35.0306105044355647 32.0443517138658081 2.1933204937043911
9769 3 -2.0 34.8722242668439222 33.6465692995590970 2.6971674024993644
9770 3 -2.0 35.1889967420272072 36.8510044709456750 1.6894735849094176
9771 3 -2.0 32.8536227083981700 36.8510044709456750 0.5038469087949736
9772 3 -2.0 37.2075983004729594 33.6465692995590970 3.8827940786138089
9773 3 -2.0 33.6001512560520297 35.6154399163915016 3.0031660760543750
9774 3 -2.0 36.4610697528190997 34.8821338541132704 1.3834749113544080
9775 3 -2.0 34.1256957191900625 34.8821338541132704 0.8098455823499836
9776 3 -2.0 35.9355252896810669 35.6154399163915016 3.5767954050587982
9777 3 -2.0 36.4610697528190997 32.4110047450049237 1.3834749113544080
9778 3 -2.0 33.6001512560520297 38.0865690254998555 3.0031660760543750
9779 3 -2.0 35.9355252896810669 38.0865690254998555 3.5767954050587982
9780 3 -2.0 34.1256957191900625 32.4110047450049237 0.8098455823499836
9781 1 2.0 35.3772741480356530 33.6465692995590970 4.4885853727985285
9782 1 2.0 34.6839468608354764 36.8510044709456750 8.6713375894278162
9783 1 2.0 37.0193208944645136 36.8510044709456750 6.6819058665029205
9784 1 2.0 33.0419001144066158 33.6465692995590970 6.4780170957234269
9785 2 4.0 32.6952364708065275 35.2487868852523860 4.3866409874087822
9786 2 4.0 35.0306105044355647 35.2487868852523860 6.5799614811131732
9787 2 4.0 32.6952364708065275 32.0443517138658081 4.3866409874087822
9788 2 4.0 35.0306105044355647 32.0443517138658081 6.5799614811131732
9789 3 -2.0 34.8722242668439222 33.6465692995590970 7.0838083899081470
9790 3 -2.0 35.1889967420272072 36.8510044709456750 6.0761145723181995
9791 3 -2.0 32.8536227083981700 36.8510044709456750 4.8904878962037559
9792 3 -2.0 37.2075983004729594 33.6465692995590970 8.2694350660225915
9793 3 -2.0 33.6001512560520297 35.6154399163915016 7.3898070634631576
9794 3 -2.0 36.4610697528190997 34.8821338541132704 5.7701158987631906
9795 3 -2.0 34.1256957191900625 34.8821338541132704 5.1964865697587657
9796 3 -2.0 35.9355252896810669 35.6154399163915016 7.9634363924675799
9797 3 -2.0 36.4610697528190997 32.4110047450049237 5.7701158987631906
9798 3 -2.0 33.6001512560520297 38.0865690254998555 7.3898070634631576
9799 3 -2.0 35.9355252896810669 38.0865690254998555 7.9634363924675799
9800 3 -2.0 34.1256957191900625 32.4110047450049237 5.1964865697587657
9801 1 2.0 35.3772741480356530 33.6465692995590970 8.8752263602073107
9802 1 2.0 34.6839468608354764 36.8510044709456750 13.0579785768365984
9803 1 2.0 37.0193208944645136 36.8510044709456750 11.0685468539117036
9804 1 2.0 33.0419001144066158 33.6465692995590970 10.8646580831322090
9805 2 4.0 32.6952364708065275 35.2487868852523860 8.7732819748175643
9806 2 4.0 35.0306105044355647 35.2487868852523860 10.9666024685219554
9807 2 4.0 32.6952364708065275 32.0443517138658081 8.7732819748175643
9808 2 4.0 35.0306105044355647 32.0443517138658081 10.9666024685219554
9809 3 -2.0 34.8722242668439222 33.6465692995590970 11.4704493773169283
9810 3 -2.0 35.1889967420272072 36.8510044709456750 10.4627555597269826
9811 3 -2.0 32.8536227083981700 36.8510044709456750 9.2771288836125372
9812 3 -2.0 37.2075983004729594 33.6465692995590970 12.6560760534313737
9813 3 -2.0 33.6001512560520297 35.6154399163915016 11.7764480508719398
9814 3 -2.0 36.4610697528190997 34.8821338541132704 10.1567568861719728
9815 3 -2.0 34.1256957191900625 34.8821338541132704 9.5831275571675469
9816 3 -2.0 35.9355252896810669 35.6154399163915016 12.3500773798763621
9817 3 -2.0 36.4610697528190997 32.4110047450049237 10.1567568861719728
9818 3 -2.0 33.6001512560520297 38.0865690254998555 11.7764480508719398
9819 3 -2.0 35.9355252896810669 38.0865690254998555 12.3500773798763621
9820 3 -2.0 34.1256957191900625 32.4110047450049237 9.5831275571675469
9821 1 2.0 35.3772741480356530 33.6465692995590970 13.2618673476160929
9822 1 2.0 34.6839468608354764 36.8510044709456750 17.4446195642453823
9823 1 2.0 37.0193208944645136 36.8510044709456750 15.4551878413204857
9824 1 2.0 33.0419001144066158 33.6465692995590970 15.2512990705409912
9825 2 4.0 32.6952364708065275 35.2487868852523860 13.1599229622263465
9826 2 4.0 35.0306105044355647 35.2487868852523860 15.3532434559307376
9827 2 4.0 32.6952364708065275 32.0443517138658081 13.1599229622263465
9828 2 4.0 35.0306105044355647 32.0443517138658081 15.3532434559307376
9829 3 -2.0 34.8722242668439222 33.6465692995590970 15.8570903647257104
9830 3 -2.0 35.1889967420272072 36.8510044709456750 14.8493965471357647
9831 3 -2.0 32.8536227083981700 36.8510044709456750 13.6637698710213193
9832 3 -2.0 37.2075983004729594 33.6465692995590970 17.0427170408401558
9833 3 -2.0 33.6001512560520297 35.6154399163915016 16.1630890382807237
9834 3 -2.0 36.4610697528190997 34.8821338541132704 14.5433978735807550
9835 3 -2.0 34.1256957191900625 34.8821338541132704 13.9697685445763291
9836 3 -2.0 35.9355252896810669 35.6154399163915016 16.7367183672851425
9837 3 -2.0 36.4610697528190997 32.4110047450049237 14.5433978735807550
9838 3 -2.0 33.6001512560520297 38.0865690254998555 16.1630890382807237
9839 3 -2.0 35.9355252896810669 38.0865690254998555 16.7367183672851425
9840 3 -2.0 34.1256957191900625 32.4110047450049237 13.9697685445763291
9841 1 2.0 35.3772741480356530 33.6465692995590970 17.6485083350248750
9842 1 2.0 34.6839468608354764 36.8510044709456750 21.8312605516541645
9843 1 2.0 37.0193208944645136 36.8510044709456750 19.8418288287292661
9844 1 2.0 33.0419001144066158 33.6465692995590970 19.6379400579497734
9845 2 4.0 32.6952364708065275 35.2487868852523860 17.5465639496351287
9846 2 4.0 35.0306105044355647 35.2487868852523860 19.7398844433395197
9847 2 4.0 32.6952364708065275 32.0443517138658081 17.5465639496351287
9848 2 4.0 35.0306105044355647 32.0443517138658081 19.7398844433395197
9849 3 -2.0 34.8722242668439222 33.6465692995590970 20.2437313521344926
9850 3 -2.0 35.1889967420272072 36.8510044709456750 19.2360375345445433
9851 3 -2.0 32.8536227083981700 36.8510044709456750 18.0504108584301051
9852 3 -2.0 37.2075983004729594 33.6465692995590970 21.4293580282489380
9853 3 -2.0 33.6001512560520297 35.6154399163915016 20.5497300256895024
9854 3 -2.0 36.4610697528190997 34.8821338541132704 18.9300388609895371
9855 3 -2.0 34.1256957191900625 34.8821338541132704 18.3564095319851113
9856 3 -2.0 35.9355252896810669 35.6154399163915016 21.1233593546939282
9857 3 -2.0 36.4610697528190997 32.4110047450049237 18.9300388609895371
9858 3 -2.0 33.6001512560520297 38.0865690254998555 20.5497300256895024
9859 3 -2.0 35.9355252896810669 38.0865690254998555 21.1233593546939282
9860 3 -2.0 34.1256957191900625 32.4110047450049237 18.3564095319851113
9861 1 2.0 35.3772741480356530 33.6465692995590970 22.0351493224336572
9862 1 2.0 34.6839468608354764 36.8510044709456750 26.2179015390629466
9863 1 2.0 37.0193208944645136 36.8510044709456750 24.2284698161380483
9864 1 2.0 33.0419001144066158 33.6465692995590970 24.0245810453585555
9865 2 4.0 32.6952364708065275 35.2487868852523860 21.9332049370439108
9866 2 4.0 35.0306105044355647 35.2487868852523860 24.1265254307483019
9867 2 4.0 32.6952364708065275 32.0443517138658081 21.9332049370439108
9868 2 4.0 35.0306105044355647 32.0443517138658081 24.1265254307483019
9869 3 -2.0 34.8722242668439222 33.6465692995590970 24.6303723395432748
9870 3 -2.0 35.1889967420272072 36.8510044709456750 23.6226785219533255
9871 3 -2.0 32.8536227083981700 36.8510044709456750 22.4370518458388872
9872 3 -2.0 37.2075983004729594 33.6465692995590970 25.8159990156577202
9873 3 -2.0 33.6001512560520297 35.6154399163915016 24.9363710130982845
9874 3 -2.0 36.4610697528190997 34.8821338541132704 23.3166798483983193
9875 3 -2.0 34.1256957191900625 34.8821338541132704 22.7430505193938934
9876 3 -2.0 35.9355252896810669 35.6154399163915016 25.5100003421027104
9877 3 -2.0 36.4610697528190997 32.4110047450049237 23.3166798483983193
9878 3 -2.0 33.6001512560520297 38.0865690254998555 24.9363710130982845
9879 3 -2.0 35.9355252896810669 38.0865690254998555 25.5100003421027104
9880 3 -2.0 34.1256957191900625 32.4110047450049237 22.7430505193938934
9881 1 2.0 35.3772741480356530 33.6465692995590970 26.4217903098424394
9882 1 2.0 34.6839468608354764 36.8510044709456750 30.6045425264717288
9883 1 2.0 37.0193208944645136 36.8510044709456750 28.6151108035468305
9884 1 2.0 33.0419001144066158 33.6465692995590970 28.4112220327673377
9885 2 4.0 32.6952364708065275 35.2487868852523860 26.3198459244526930
9886 2 4.0 35.0306105044355647 35.2487868852523860 28.5131664181570841
9887 2 4.0 32.6952364708065275 32.0443517138658081 26.3198459244526930
9888 2 4.0 35.0306105044355647 32.0443517138658081 28.5131664181570841
9889 3 -2.0 34.8722242668439222 33.6465692995590970 29.0170133269520569
9890 3 -2.0 35.1889967420272072 36.8510044709456750 28.0093195093621077
9891 3 -2.0 32.8536227083981700 36.8510044709456750 26.8236928332476694
9892 3 -2.0 37.2075983004729594 33.6465692995590970 30.2026400030665023
9893 3 -2.0 33.6001512560520297 35.6154399163915016 29.3230120005070667
9894 3 -2.0 36.4610697528190997 34.8821338541132704 27.7033208358071015
9895 3 -2.0 34.1256957191900625 34.8821338541132704 27.1296915068026756
9896 3 -2.0 35.9355252896810669 35.6154399163915016 29.8966413295114926
9897 3 -2.0 36.4610697528190997 32.4110047450049237 27.7033208358071015
9898 3 -2.0 33.6001512560520297 38.0865690254998555 29.3230120005070667
9899 3 -2.0 35.9355252896810669 38.0865690254998555 29.8966413295114926
9900 3 -2.0 34.1256957191900625 32.4110047450049237 27.1296915068026756
9901 1 2.0 35.3772741480356530 33.6465692995590970 30.8084312972512215
9902 1 2.0 34.6839468608354764 36.8510044709456750 34.9911835138805074
9903 1 2.0 37.0193208944645136 36.8510044709456750 33.0017517909556162
9904 1 2.0 33.0419001144066158 33.6465692995590970 32.7978630201761163
9905 2 4.0 32.6952364708065275 35.2487868852523860 30.7064869118614752
9906 2 4.0 35.0306105044355647 35.2487868852523860 32.8998074055658662
9907 2 4.0 32.6952364708065275 32.0443517138658081 30.7064869118614752
9908 2 4.0 35.0306105044355647 32.0443517138658081 32.8998074055658662
9909 3 -2.0 34.8722242668439222 33.6465692995590970 33.4036543143608355
9910 3 -2.0 35.1889967420272072 36.8510044709456750 32.3959604967708898
9911 3 -2.0 32.8536227083981700 36.8510044709456750 31.2103338206564516
9912 3 -2.0 37.2075983004729594 33.6465692995590970 34.5892809904752880
9913 3 -2.0 33.6001512560520297 35.6154399163915016 33.7096529879158524
9914 3 -2.0 36.4610697528190997 34.8821338541132704 32.0899618232158801
9915 3 -2.0 34.1256957191900625 34.8821338541132704 31.5163324942114578
9916 3 -2.0 35.9355252896810669 35.6154399163915016 34.2832823169202712
9917 3 -2.0 36.4610697528190997 32.4110047450049237 32.0899618232158801
9918 3 -2.0 33.6001512560520297 38.0865690254998555 33.7096529879158524
9919 3 -2.0 35.9355252896810669 38.0865690254998555 34.2832823169202712
9920 3 -2.0 34.1256957191900625 32.4110047450049237 31.5163324942114578
9921 1 2.0 35.3772741480356530 40.0554396423322601 0.1019443853897463
9922 1 2.0 34.6839468608354764 43.2598748137188380 4.2846966020190349
9923 1 2.0 37.0193208944645136 43.2598748137188380 2.2952648790941383
9924 1 2.0 33.0419001144066158 40.0554396423322601 2.0913761083146447
9925 2 4.0 32.6952364708065275 41.6576572280255490 0.0000000000000000
9926 2 4.0 35.0306105044355647 41.6576572280255490 2.1933204937043911
9927 2 4.0 32.6952364708065275 38.4532220566389640 0.0000000000000000
9928 2 4.0 35.0306105044355647 38.4532220566389640 2.1933204937043911
9929 3 -2.0 34.8722242668439222 40.0554396423322601 2.6971674024993644
9930 3 -2.0 35.1889967420272072 43.2598748137188380 1.6894735849094176
9931 3 -2.0 32.8536227083981700 43.2598748137188380 0.5038469087949736
9932 3 -2.0 37.2075983004729594 40.0554396423322601 3.8827940786138089
9933 3 -2.0 33.6001512560520297 42.0243102591646647 3.0031660760543750
9934 3 -2.0 36.4610697528190997 41.2910041968864334 1.3834749113544080
9935 3 -2.0 34.1256957191900625 41.2910041968864334 0.8098455823499836
9936 3 -2.0 35.9355252896810669 42.0243102591646647 3.5767954050587982
9937 3 -2.0 36.4610697528190997 38.8198750877780796 1.3834749113544080
9938 3 -2.0 33.6001512560520297 44.4954393682730114 3.0031660760543750
9939 3 -2.0 35.9355252896810669 44.4954393682730114 3.5767954050587982
9940 3 -2.0 34.1256957191900625 38.8198750877780796 0.8098455823499836
9941 1 2.0 35.3772741480356530 40.0554396423322601 4.4885853727985285
9942 1 2.0 34.6839468608354764 43.2598748137188380 8.6713375894278162
9943 1 2.0 37.0193208944645136 43.2598748137188380 6.6819058665029205
9944 1 2.0 33.0419001144066158 40.0554396423322601 6.4780170957234269
9945 2 4.0 32.6952364708065275 41.6576572280255490 4.3866409874087822
9946 2 4.0 35.0306105044355647 41.6576572280255490 6.5799614811131732
9947 2 4.0 32.6952364708065275 38.4532220566389640 4.3866409874087822
9948 2 4.0 35.0306105044355647 38.4532220566389640 6.5799614811131732
9949 3 -2.0 34.8722242668439222 40.0554396423322601 7.0838083899081470
9950 3 -2.0 35.1889967420272072 43.2598748137188380 6.0761145723181995
9951 3 -2.0 32.8536227083981700 43.2598748137188380 4.8904878962037559
9952 3 -2.0 37.2075983004729594 40.0554396423322601 8.2694350660225915
9953 3 -2.0 33.6001512560520297 42.0243102591646647 7.3898070634631576
9954 3 -2.0 36.4610697528190997 41.2910041968864334 5.7701158987631906
9955 3 -2.0 34.1256957191900625 41.2910041968864334 5.1964865697587657
9956 3 -2.0 35.9355252896810669 42.0243102591646647 7.9634363924675799
9957 3 -2.0 36.4610697528190997 38.8198750877780796 5.7701158987631906
9958 3 -2.0 33.6001512560520297 44.4954393682730114 7.3898070634631576
9959 3 -2.0 35.9355252896810669 44.4954393682730114 7.9634363924675799
9960 3 -2.0 34.1256957191900625 38.8198750877780796 5.1964865697587657
9961 1 2.0 35.3772741480356530 40.0554396423322601 8.8752263602073107
9962 1 2.0 34.6839468608354764 43.2598748137188380 13.0579785768365984
9963 1 2.0 37.0193208944645136 43.2598748137188380 11.0685468539117036
9964 1 2.0 33.0419001144066158 40.0554396423322601 10.8646580831322090
9965 2 4.0 32.6952364708065275 41.6576572280255490 8.7732819748175643
9966 2 4.0 35.0306105044355647 41.6576572280255490 10.9666024685219554
9967 2 4.0 32.6952364708065275 38.4532220566389640 8.7732819748175643
9968 2 4.0 35.0306105044355647 38.4532220566389640 10.9666024685219554
9969 3 -2.0 34.8722242668439222 40.0554396423322601 11.4704493773169283
9970 3 -2.0 35.1889967420272072 43.2598748137188380 10.4627555597269826
9971 3 -2.0 32.8536227083981700 43.2598748137188380 9.2771288836125372
9972 3 -2.0 37.2075983004729594 40.0554396423322601 12.6560760534313737
9973 3 -2.0 33.6001512560520297 42.0243102591646647 11.7764480508719398
9974 3 -2.0 36.4610697528190997 41.2910041968864334 10.1567568861719728
9975 3 -2.0 34.1256957191900625 41.2910041968864334 9.5831275571675469
9976 3 -2.0 35.9355252896810669 42.0243102591646647 12.3500773798763621
9977 3 -2.0 36.4610697528190997 38.8198750877780796 10.1567568861719728
9978 3 -2.0 33.6001512560520297 44.4954393682730114 11.7764480508719398
9979 3 -2.0 35.9355252896810669 44.4954393682730114 12.3500773798763621
9980 3 -2.0 34.1256957191900625 38.8198750877780796 9.5831275571675469
9981 1 2.0 35.3772741480356530 40.0554396423322601 13.2618673476160929
9982 1 2.0 34.6839468608354764 43.2598748137188380 17.4446195642453823
9983 1 2.0 37.0193208944645136 43.2598748137188380 15.4551878413204857
9984 1 2.0 33.0419001144066158 40.0554396423322601 15.2512990705409912
9985 2 4.0 32.6952364708065275 41.6576572280255490 13.1599229622263465
9986 2 4.0 35.0306105044355647 41.6576572280255490 15.3532434559307376
9987 2 4.0 32.6952364708065275 38.4532220566389640 13.1599229622263465
9988 2 4.0 35.0306105044355647 38.4532220566389640 15.3532434559307376
9989 3 -2.0 34.8722242668439222 40.0554396423322601 15.8570903647257104
9990 3 -2.0 35.1889967420272072 43.2598748137188380 14.8493965471357647
9991 3 -2.0 32.8536227083981700 43.2598748137188380 13.6637698710213193
9992 3 -2.0 37.2075983004729594 40.0554396423322601 17.0427170408401558
9993 3 -2.0 33.6001512560520297 42.0243102591646647 16.1630890382807237
9994 3 -2.0 36.4610697528190997 41.2910041968864334 14.5433978735807550
9995 3 -2.0 34.1256957191900625 41.2910041968864334 13.9697685445763291
9996 3 -2.0 35.9355252896810669 42.0243102591646647 16.7367183672851425
9997 3 -2.0 36.4610697528190997 38.8198750877780796 14.5433978735807550
9998 3 -2.0 33.6001512560520297 44.4954393682730114 16.1630890382807237
9999 3 -2.0 35.9355252896810669 44.4954393682730114 16.7367183672851425
10000 3 -2.0 34.1256957191900625 38.8198750877780796 13.9697685445763291
10001 1 2.0 35.3772741480356530 40.0554396423322601 17.6485083350248750
10002 1 2.0 34.6839468608354764 43.2598748137188380 21.8312605516541645
10003 1 2.0 37.0193208944645136 43.2598748137188380 19.8418288287292661
10004 1 2.0 33.0419001144066158 40.0554396423322601 19.6379400579497734
10005 2 4.0 32.6952364708065275 41.6576572280255490 17.5465639496351287
10006 2 4.0 35.0306105044355647 41.6576572280255490 19.7398844433395197
10007 2 4.0 32.6952364708065275 38.4532220566389640 17.5465639496351287
10008 2 4.0 35.0306105044355647 38.4532220566389640 19.7398844433395197
10009 3 -2.0 34.8722242668439222 40.0554396423322601 20.2437313521344926
10010 3 -2.0 35.1889967420272072 43.2598748137188380 19.2360375345445433
10011 3 -2.0 32.8536227083981700 43.2598748137188380 18.0504108584301051
10012 3 -2.0 37.2075983004729594 40.0554396423322601 21.4293580282489380
10013 3 -2.0 33.6001512560520297 42.0243102591646647 20.5497300256895024
10014 3 -2.0 36.4610697528190997 41.2910041968864334 18.9300388609895371
10015 3 -2.0 34.1256957191900625 41.2910041968864334 18.3564095319851113
10016 3 -2.0 35.9355252896810669 42.0243102591646647 21.1233593546939282
10017 3 -2.0 36.4610697528190997 38.8198750877780796 18.9300388609895371
10018 3 -2.0 33.6001512560520297 44.4954393682730114 20.5497300256895024
10019 3 -2.0 35.9355252896810669 44.4954393682730114 21.1233593546939282
10020 3 -2.0 34.1256957191900625 38.8198750877780796 18.3564095319851113
10021 1 2.0 35.3772741480356530 40.0554396423322601 22.0351493224336572
10022 1 2.0 34.6839468608354764 43.2598748137188380 26.2179015390629466
10023 1 2.0 37.0193208944645136 43.2598748137188380 24.2284698161380483
10024 1 2.0 33.0419001144066158 40.0554396423322601 24.0245810453585555
10025 2 4.0 32.6952364708065275 41.6576572280255490 21.9332049370439108
10026 2 4.0 35.0306105044355647 41.6576572280255490 24.1265254307483019
10027 2 4.0 32.6952364708065275 38.4532220566389640 21.9332049370439108
10028 2 4.0 35.0306105044355647 38.4532220566389640 24.1265254307483019
10029 3 -2.0 34.8722242668439222 40.0554396423322601 24.6303723395432748
10030 3 -2.0 35.1889967420272072 43.2598748137188380 23.6226785219533255
10031 3 -2.0 32.8536227083981700 43.2598748137188380 22.4370518458388872
10032 3 -2.0 37.2075983004729594 40.0554396423322601 25.8159990156577202
10033 3 -2.0 33.6001512560520297 42.0243102591646647 24.9363710130982845
10034 3 -2.0 36.4610697528190997 41.2910041968864334 23.3166798483983193
10035 3 -2.0 34.1256957191900625 41.2910041968864334 22.7430505193938934
10036 3 -2.0 35.9355252896810669 42.0243102591646647 25.5100003421027104
10037 3 -2.0 36.4610697528190997 38.8198750877780796 23.3166798483983193
10038 3 -2.0 33.6001512560520297 44.4954393682730114 24.9363710130982845
10039 3 -2.0 35.9355252896810669 44.4954393682730114 25.5100003421027104
10040 3 -2.0 34.1256957191900625 38.8198750877780796 22.7430505193938934
10041 1 2.0 35.3772741480356530 40.0554396423322601 26.4217903098424394
10042 1 2.0 34.6839468608354764 43.2598748137188380 30.6045425264717288
10043 1 2.0 37.0193208944645136 43.2598748137188380 28.6151108035468305
10044 1 2.0 33.0419001144066158 40.0554396423322601 28.4112220327673377
10045 2 4.0 32.6952364708065275 41.6576572280255490 26.3198459244526930
10046 2 4.0 35.0306105044355647 41.6576572280255490 28.5131664181570841
10047 2 4.0 32.6952364708065275 38.4532220566389640 26.3198459244526930
10048 2 4.0 35.0306105044355647 38.4532220566389640 28.5131664181570841
10049 3 -2.0 34.8722242668439222 40.0554396423322601 29.0170133269520569
10050 3 -2.0 35.1889967420272072 43.2598748137188380 28.0093195093621077
10051 3 -2.0 32.8536227083981700 43.2598748137188380 26.8236928332476694
10052 3 -2.0 37.2075983004729594 40.0554396423322601 30.2026400030665023
10053 3 -2.0 33.6001512560520297 42.0243102591646647 29.3230120005070667
10054 3 -2.0 36.4610697528190997 41.2910041968864334 27.7033208358071015
10055 3 -2.0 34.1256957191900625 41.2910041968864334 27.1296915068026756
10056 3 -2.0 35.9355252896810669 42.0243102591646647 29.8966413295114926
10057 3 -2.0 36.4610697528190997 38.8198750877780796 27.7033208358071015
10058 3 -2.0 33.6001512560520297 44.4954393682730114 29.3230120005070667
10059 3 -2.0 35.9355252896810669 44.4954393682730114 29.8966413295114926
10060 3 -2.0 34.1256957191900625 38.8198750877780796 27.1296915068026756
10061 1 2.0 35.3772741480356530 40.0554396423322601 30.8084312972512215
10062 1 2.0 34.6839468608354764 43.2598748137188380 34.9911835138805074
10063 1 2.0 37.0193208944645136 43.2598748137188380 33.0017517909556162
10064 1 2.0 33.0419001144066158 40.0554396423322601 32.7978630201761163
10065 2 4.0 32.6952364708065275 41.6576572280255490 30.7064869118614752
10066 2 4.0 35.0306105044355647 41.6576572280255490 32.8998074055658662
10067 2 4.0 32.6952364708065275 38.4532220566389640 30.7064869118614752
10068 2 4.0 35.0306105044355647 38.4532220566389640 32.8998074055658662
10069 3 -2.0 34.8722242668439222 40.0554396423322601 33.4036543143608355
10070 3 -2.0 35.1889967420272072 43.2598748137188380 32.3959604967708898
10071 3 -2.0 32.8536227083981700 43.2598748137188380 31.2103338206564516
10072 3 -2.0 37.2075983004729594 40.0554396423322601 34.5892809904752880
10073 3 -2.0 33.6001512560520297 42.0243102591646647 33.7096529879158524
10074 3 -2.0 36.4610697528190997 41.2910041968864334 32.0899618232158801
10075 3 -2.0 34.1256957191900625 41.2910041968864334 31.5163324942114578
10076 3 -2.0 35.9355252896810669 42.0243102591646647 34.2832823169202712
10077 3 -2.0 36.4610697528190997 38.8198750877780796 32.0899618232158801
10078 3 -2.0 33.6001512560520297 44.4954393682730114 33.7096529879158524
10079 3 -2.0 35.9355252896810669 44.4954393682730114 34.2832823169202712
10080 3 -2.0 34.1256957191900625 38.8198750877780796 31.5163324942114578
10081 1 2.0 35.3772741480356530 46.4643099851054160 0.1019443853897463
10082 1 2.0 34.6839468608354764 49.6687451564920011 4.2846966020190349
10083 1 2.0 37.0193208944645136 49.6687451564920011 2.2952648790941383
10084 1 2.0 33.0419001144066158 46.4643099851054160 2.0913761083146447
10085 2 4.0 32.6952364708065275 48.0665275707987121 0.0000000000000000
10086 2 4.0 35.0306105044355647 48.0665275707987121 2.1933204937043911
10087 2 4.0 32.6952364708065275 44.8620923994121270 0.0000000000000000
10088 2 4.0 35.0306105044355647 44.8620923994121270 2.1933204937043911
10089 3 -2.0 34.8722242668439222 46.4643099851054160 2.6971674024993644
10090 3 -2.0 35.1889967420272072 49.6687451564920011 1.6894735849094176
10091 3 -2.0 32.8536227083981700 49.6687451564920011 0.5038469087949736
10092 3 -2.0 37.2075983004729594 46.4643099851054160 3.8827940786138089
10093 3 -2.0 33.6001512560520297 48.4331806019378206 3.0031660760543750
10094 3 -2.0 36.4610697528190997 47.6998745396595965 1.3834749113544080
10095 3 -2.0 34.1256957191900625 47.6998745396595965 0.8098455823499836
10096 3 -2.0 35.9355252896810669 48.4331806019378206 3.5767954050587982
10097 3 -2.0 36.4610697528190997 45.2287454305512426 1.3834749113544080
10098 3 -2.0 33.6001512560520297 50.9043097110461744 3.0031660760543750
10099 3 -2.0 35.9355252896810669 50.9043097110461744 3.5767954050587982
10100 3 -2.0 34.1256957191900625 45.2287454305512426 0.8098455823499836
10101 1 2.0 35.3772741480356530 46.4643099851054160 4.4885853727985285
10102 1 2.0 34.6839468608354764 49.6687451564920011 8.6713375894278162
10103 1 2.0 37.0193208944645136 49.6687451564920011 6.6819058665029205
10104 1 2.0 33.0419001144066158 46.4643099851054160 6.4780170957234269
10105 2 4.0 32.6952364708065275 48.0665275707987121 4.3866409874087822
10106 2 4.0 35.0306105044355647 48.0665275707987121 6.5799614811131732
10107 2 4.0 32.6952364708065275 44.8620923994121270 4.3866409874087822
10108 2 4.0 35.0306105044355647 44.8620923994121270 6.5799614811131732
10109 3 -2.0 34.8722242668439222 46.4643099851054160 7.0838083899081470
10110 3 -2.0 35.1889967420272072 49.6687451564920011 6.0761145723181995
10111 3 -2.0 32.8536227083981700 49.6687451564920011 4.8904878962037559
10112 3 -2.0 37.2075983004729594 46.4643099851054160 8.2694350660225915
10113 3 -2.0 33.6001512560520297 48.4331806019378206 7.3898070634631576
10114 3 -2.0 36.4610697528190997 47.6998745396595965 5.7701158987631906
10115 3 -2.0 34.1256957191900625 47.6998745396595965 5.1964865697587657
10116 3 -2.0 35.9355252896810669 48.4331806019378206 7.9634363924675799
10117 3 -2.0 36.4610697528190997 45.2287454305512426 5.7701158987631906
10118 3 -2.0 33.6001512560520297 50.9043097110461744 7.3898070634631576
10119 3 -2.0 35.9355252896810669 50.9043097110461744 7.9634363924675799
10120 3 -2.0 34.1256957191900625 45.2287454305512426 5.1964865697587657
10121 1 2.0 35.3772741480356530 46.4643099851054160 8.8752263602073107
10122 1 2.0 34.6839468608354764 49.6687451564920011 13.0579785768365984
10123 1 2.0 37.0193208944645136 49.6687451564920011 11.0685468539117036
10124 1 2.0 33.0419001144066158 46.4643099851054160 10.8646580831322090
10125 2 4.0 32.6952364708065275 48.0665275707987121 8.7732819748175643
10126 2 4.0 35.0306105044355647 48.0665275707987121 10.9666024685219554
10127 2 4.0 32.6952364708065275 44.8620923994121270 8.7732819748175643
10128 2 4.0 35.0306105044355647 44.8620923994121270 10.9666024685219554
10129 3 -2.0 34.8722242668439222 46.4643099851054160 11.4704493773169283
10130 3 -2.0 35.1889967420272072 49.6687451564920011 10.4627555597269826
10131 3 -2.0 32.8536227083981700 49.6687451564920011 9.2771288836125372
10132 3 -2.0 37.2075983004729594 46.4643099851054160 12.6560760534313737
10133 3 -2.0 33.6001512560520297 48.4331806019378206 11.7764480508719398
10134 3 -2.0 36.4610697528190997 47.6998745396595965 10.1567568861719728
10135 3 -2.0 34.1256957191900625 47.6998745396595965 9.5831275571675469
10136 3 -2.0 35.9355252896810669 48.4331806019378206 12.3500773798763621
10137 3 -2.0 36.4610697528190997 45.2287454305512426 10.1567568861719728
10138 3 -2.0 33.6001512560520297 50.9043097110461744 11.7764480508719398
10139 3 -2.0 35.9355252896810669 50.9043097110461744 12.3500773798763621
10140 3 -2.0 34.1256957191900625 45.2287454305512426 9.5831275571675469
10141 1 2.0 35.3772741480356530 46.4643099851054160 13.2618673476160929
10142 1 2.0 34.6839468608354764 49.6687451564920011 17.4446195642453823
10143 1 2.0 37.0193208944645136 49.6687451564920011 15.4551878413204857
10144 1 2.0 33.0419001144066158 46.4643099851054160 15.2512990705409912
10145 2 4.0 32.6952364708065275 48.0665275707987121 13.1599229622263465
10146 2 4.0 35.0306105044355647 48.0665275707987121 15.3532434559307376
10147 2 4.0 32.6952364708065275 44.8620923994121270 13.1599229622263465
10148 2 4.0 35.0306105044355647 44.8620923994121270 15.3532434559307376
10149 3 -2.0 34.8722242668439222 46.4643099851054160 15.8570903647257104
10150 3 -2.0 35.1889967420272072 49.6687451564920011 14.8493965471357647
10151 3 -2.0 32.8536227083981700 49.6687451564920011 13.6637698710213193
10152 3 -2.0 37.2075983004729594 46.4643099851054160 17.0427170408401558
10153 3 -2.0 33.6001512560520297 48.4331806019378206 16.1630890382807237
10154 3 -2.0 36.4610697528190997 47.6998745396595965 14.5433978735807550
10155 3 -2.0 34.1256957191900625 47.6998745396595965 13.9697685445763291
10156 3 -2.0 35.9355252896810669 48.4331806019378206 16.7367183672851425
10157 3 -2.0 36.4610697528190997 45.2287454305512426 14.5433978735807550
10158 3 -2.0 33.6001512560520297 50.9043097110461744 16.1630890382807237
10159 3 -2.0 35.9355252896810669 50.9043097110461744 16.7367183672851425
10160 3 -2.0 34.1256957191900625 45.2287454305512426 13.9697685445763291
10161 1 2.0 35.3772741480356530 46.4643099851054160 17.6485083350248750
10162 1 2.0 34.6839468608354764 49.6687451564920011 21.8312605516541645
10163 1 2.0 37.0193208944645136 49.6687451564920011 19.8418288287292661
10164 1 2.0 33.0419001144066158 46.4643099851054160 19.6379400579497734
10165 2 4.0 32.6952364708065275 48.0665275707987121 17.5465639496351287
10166 2 4.0 35.0306105044355647 48.0665275707987121 19.7398844433395197
10167 2 4.0 32.6952364708065275 44.8620923994121270 17.5465639496351287
10168 2 4.0 35.0306105044355647 44.8620923994121270 19.7398844433395197
10169 3 -2.0 34.8722242668439222 46.4643099851054160 20.2437313521344926
10170 3 -2.0 35.1889967420272072 49.6687451564920011 19.2360375345445433
10171 3 -2.0 32.8536227083981700 49.6687451564920011 18.0504108584301051
10172 3 -2.0 37.2075983004729594 46.4643099851054160 21.4293580282489380
10173 3 -2.0 33.6001512560520297 48.4331806019378206 20.5497300256895024
10174 3 -2.0 36.4610697528190997 47.6998745396595965 18.9300388609895371
10175 3 -2.0 34.1256957191900625 47.6998745396595965 18.3564095319851113
10176 3 -2.0 35.9355252896810669 48.4331806019378206 21.1233593546939282
10177 3 -2.0 36.4610697528190997 45.2287454305512426 18.9300388609895371
10178 3 -2.0 33.6001512560520297 50.9043097110461744 20.5497300256895024
10179 3 -2.0 35.9355252896810669 50.9043097110461744 21.1233593546939282
10180 3 -2.0 34.1256957191900625 45.2287454305512426 18.3564095319851113
10181 1 2.0 35.3772741480356530 46.4643099851054160 22.0351493224336572
10182 1 2.0 34.6839468608354764 49.6687451564920011 26.2179015390629466
10183 1 2.0 37.0193208944645136 49.6687451564920011 24.2284698161380483
10184 1 2.0 33.0419001144066158 46.4643099851054160 24.0245810453585555
10185 2 4.0 32.6952364708065275 48.0665275707987121 21.9332049370439108
10186 2 4.0 35.0306105044355647 48.0665275707987121 24.1265254307483019
10187 2 4.0 32.6952364708065275 44.8620923994121270 21.9332049370439108
10188 2 4.0 35.0306105044355647 44.8620923994121270 24.1265254307483019
10189 3 -2.0 34.8722242668439222 46.4643099851054160 24.6303723395432748
10190 3 -2.0 35.1889967420272072 49.6687451564920011 23.6226785219533255
10191 3 -2.0 32.8536227083981700 49.6687451564920011 22.4370518458388872
10192 3 -2.0 37.2075983004729594 46.4643099851054160 25.8159990156577202
10193 3 -2.0 33.6001512560520297 48.4331806019378206 24.9363710130982845
10194 3 -2.0 36.4610697528190997 47.6998745396595965 23.3166798483983193
10195 3 -2.0 34.1256957191900625 47.6998745396595965 22.7430505193938934
10196 3 -2.0 35.9355252896810669 48.4331806019378206 25.5100003421027104
10197 3 -2.0 36.4610697528190997 45.2287454305512426 23.3166798483983193
10198 3 -2.0 33.6001512560520297 50.9043097110461744 24.9363710130982845
10199 3 -2.0 35.9355252896810669 50.9043097110461744 25.5100003421027104
10200 3 -2.0 34.1256957191900625 45.2287454305512426 22.7430505193938934
10201 1 2.0 35.3772741480356530 46.4643099851054160 26.4217903098424394
10202 1 2.0 34.6839468608354764 49.6687451564920011 30.6045425264717288
10203 1 2.0 37.0193208944645136 49.6687451564920011 28.6151108035468305
10204 1 2.0 33.0419001144066158 46.4643099851054160 28.4112220327673377
10205 2 4.0 32.6952364708065275 48.0665275707987121 26.3198459244526930
10206 2 4.0 35.0306105044355647 48.0665275707987121 28.5131664181570841
10207 2 4.0 32.6952364708065275 44.8620923994121270 26.3198459244526930
10208 2 4.0 35.0306105044355647 44.8620923994121270 28.5131664181570841
10209 3 -2.0 34.8722242668439222 46.4643099851054160 29.0170133269520569
10210 3 -2.0 35.1889967420272072 49.6687451564920011 28.0093195093621077
10211 3 -2.0 32.8536227083981700 49.6687451564920011 26.8236928332476694
10212 3 -2.0 37.2075983004729594 46.4643099851054160 30.2026400030665023
10213 3 -2.0 33.6001512560520297 48.4331806019378206 29.3230120005070667
10214 3 -2.0 36.4610697528190997 47.6998745396595965 27.7033208358071015
10215 3 -2.0 34.1256957191900625 47.6998745396595965 27.1296915068026756
10216 3 -2.0 35.9355252896810669 48.4331806019378206 29.8966413295114926
10217 3 -2.0 36.4610697528190997 45.2287454305512426 27.7033208358071015
10218 3 -2.0 33.6001512560520297 50.9043097110461744 29.3230120005070667
10219 3 -2.0 35.9355252896810669 50.9043097110461744 29.8966413295114926
10220 3 -2.0 34.1256957191900625 45.2287454305512426 27.1296915068026756
10221 1 2.0 35.3772741480356530 46.4643099851054160 30.8084312972512215
10222 1 2.0 34.6839468608354764 49.6687451564920011 34.9911835138805074
10223 1 2.0 37.0193208944645136 49.6687451564920011 33.0017517909556162
10224 1 2.0 33.0419001144066158 46.4643099851054160 32.7978630201761163
10225 2 4.0 32.6952364708065275 48.0665275707987121 30.7064869118614752
10226 2 4.0 35.0306105044355647 48.0665275707987121 32.8998074055658662
10227 2 4.0 32.6952364708065275 44.8620923994121270 30.7064869118614752
10228 2 4.0 35.0306105044355647 44.8620923994121270 32.8998074055658662
10229 3 -2.0 34.8722242668439222 46.4643099851054160 33.4036543143608355
10230 3 -2.0 35.1889967420272072 49.6687451564920011 32.3959604967708898
10231 3 -2.0 32.8536227083981700 49.6687451564920011 31.2103338206564516
10232 3 -2.0 37.2075983004729594 46.4643099851054160 34.5892809904752880
10233 3 -2.0 33.6001512560520297 48.4331806019378206 33.7096529879158524
10234 3 -2.0 36.4610697528190997 47.6998745396595965 32.0899618232158801
10235 3 -2.0 34.1256957191900625 47.6998745396595965 31.5163324942114578
10236 3 -2.0 35.9355252896810669 48.4331806019378206 34.2832823169202712
10237 3 -2.0 36.4610697528190997 45.2287454305512426 32.0899618232158801
10238 3 -2.0 33.6001512560520297 50.9043097110461744 33.7096529879158524
10239 3 -2.0 35.9355252896810669 50.9043097110461744 34.2832823169202712
10240 3 -2.0 34.1256957191900625 45.2287454305512426 31.5163324942114578
